POSCAR file written by OVITO Basic 3.10.
   1.00000000000000     
    11.5065000000000008    0.0000000000000000    0.0000000000000000
     0.0000000000000000   11.5065000000000008    0.0000000000000000
     0.0000000000000000    0.0000000000000000   11.5065000000000008
   F    Be   Li   Th
    72    15    30     3
Direct
  0.7259891032182740  0.1217612686938325  0.9629835461069659
  0.3092364576191737  0.1432323823556354  0.3063112016168305
  0.4657810547525640  0.2479286499046661  0.1966677359460002
  0.0304681591221848  0.3674183163126057  0.0847019237342202
  0.6663598417685588  0.0887875316652435  0.7441885695494331
  0.0235423975316797  0.3799958131888448  0.8279793871204155
  0.0231364081060785  0.0878219966006821  0.4227513301243818
  0.2894655470522309  0.6813410716474251  0.9183975754533569
  0.0487113695265060  0.8869360960426320  0.9235503172463752
  0.9395390620330515  0.7440614893883785  0.7752049224925887
  0.9022860112685492  0.9607581352709904  0.0850975546941330
  0.7079036774983750  0.6763081923647501  0.3325431446276265
  0.2193605511430902  0.1703486608717803  0.5497270651457230
  0.0412285111046287  0.3369335585548450  0.4168890344368361
  0.0231398575367242  0.5623943543474235  0.6855660259851780
  0.0630483263582223  0.6738949147278729  0.9312411993797949
  0.8604163588845160  0.7650824826558792  0.2155524565298674
  0.8175613244217067  0.2329395570237409  0.3864891316887475
  0.4780823924179734  0.8148175290018911  0.9539378561352475
  0.1244083423687192  0.0023070293281248  0.7093909831290529
  0.3046514706455783  0.8597122117258073  0.0582211313508115
  0.5153532939481851  0.0078343882232175  0.0840120644669354
  0.4245239775353134  0.4603326127156750  0.6718832938960735
  0.8440658911852763  0.2706634353532159  0.1738212373806727
  0.2794451320872405  0.3549059772923556  0.2650717918032952
  0.9736798346361302  0.5731228521540376  0.1245930665131215
  0.5099701013897419  0.9816608892829536  0.3811722623178120
  0.1875977584703961  0.5196308417338695  0.7988346634533995
  0.5556514355765352  0.3835645587956042  0.0348144148855981
  0.0368897481897945  0.1633063501733231  0.9759069242899822
  0.6851352605101099  0.8493354978871215  0.0518399759855555
  0.5608989950152101  0.5376992543426622  0.8573261553632416
  0.2956404029594117  0.1588915807838480  0.8166044889004512
  0.6654113377201417  0.1293761581465284  0.2474560452534927
  0.4767750038561848  0.8091069183338490  0.1881931710988708
  0.6679463303466558  0.0814793232136207  0.4777752782424622
  0.4529332305761629  0.6818779722069124  0.6650880294235281
  0.0957325695645405  0.8307171441245647  0.1442449772778579
  0.4695206567508007  0.1519844978586420  0.6647848094957727
  0.5227312938185068  0.1808615267432422  0.8803191846251501
  0.6834672755662362  0.3593203267812773  0.2851187683131693
  0.1734085483991422  0.0306183871410936  0.0961521171059420
  0.8245955370300468  0.9507444683061136  0.8510009335398674
  0.0754150223092001  0.7690707693158818  0.6224649129528943
  0.2540134182819176  0.1960336631039582  0.0045827969047876
  0.8923663169760665  0.1529076327139315  0.8117265328925001
  0.4732771360082600  0.5776289624377035  0.0665118489311554
  0.8559768467016037  0.6866055569640278  0.5828321791983184
  0.1650223068415196  0.3728258778584357  0.6518260550819969
  0.5991028170126390  0.7692010681020949  0.5246806174188623
  0.6243367544247773  0.3039363805127244  0.6939660936059568
  0.1149581561810354  0.6001443350303636  0.3806323828570840
  0.2927095521206397  0.5193080494172598  0.4996775289958350
  0.8504677846154711  0.9502904357651774  0.5821787991520155
  0.4836562720847292  0.9008908234980746  0.6537434393634154
  0.3573382195765717  0.4048024793386695  0.9217735456941145
  0.2863192876342143  0.8893462133538823  0.8335410561575540
  0.7909088423611925  0.4005293555279736  0.8382236274044769
  0.9126651868564826  0.4810734672473925  0.3402423502812912
  0.2474509865400013  0.5366477337669197  0.1226134291413976
  0.5002094178602853  0.5731074635871030  0.4915636000113460
  0.6978865659359922  0.9274858804026683  0.2931510474799341
  0.4338828368852793  0.3121818967729400  0.4454880714558579
  0.9165754257859379  0.2523917222167025  0.6098579570917896
  0.0927330397619899  0.2186510599474233  0.2102874776049638
  0.3475377864663377  0.7266913644200265  0.3896408896187095
  0.2462565254584272  0.9584203546833032  0.4936754390300142
  0.6521806356969811  0.7780802956122208  0.7300143925388342
  0.6370120949260450  0.5552263083856366  0.6570551802455770
  0.2507767660824860  0.9365079457082301  0.2730648868747825
  0.8062816031327189  0.6094582009271413  0.0182117897523595
  0.4393634773923944  0.5803408716622674  0.2843086932894938
  0.3849913232426209  0.5962381808743332  0.4188488152129816
  0.1520884689488930  0.1735347012368907  0.0692570701388338
  0.5381593847668104  0.7803016016355914  0.6459937239748761
  0.3250621563083665  0.8161559031267811  0.9296454151886528
  0.3777914971800291  0.2644915971304153  0.2926551886879027
  0.5715991087606201  0.1934013588519770  0.7486729737582221
  0.7636110700066443  0.0710383003257691  0.8428753539602403
  0.2075150925818499  0.9114801099338979  0.1621716552950749
  0.7527440284395271  0.2429815364877107  0.2746401900054820
  0.5543455294478193  0.8794070152158354  0.0678642319076255
  0.0937955102179949  0.4533119110305220  0.7473068676311286
  0.6342441253582318  0.0370446392694283  0.3655925803485238
  0.5131002016620884  0.5593359396711937  0.6247890206285432
  0.9663650685608922  0.6801714554321934  0.6577854945814403
  0.4779667998316887  0.4744279544932409  0.9625466086642650
  0.8983000928085605  0.2447511783318343  0.0105795139200578
  0.4081280164832634  0.0362173926089259  0.2037966112483329
  0.8912166877145096  0.2847715928958306  0.7597822577311141
  0.8932849018160607  0.3633829614349269  0.4743189985995169
  0.5455177033370063  0.4085582108789959  0.2250052900866653
  0.5850388598241947  0.2069320616896102  0.0464210699095591
  0.1641446042298439  0.6812388774342257  0.5156277273601310
  0.8290558553859102  0.1310670625991371  0.5430062768651781
  0.2866683801512516  0.3725929754574110  0.5004843766513731
  0.4940572385340002  0.3072526762041499  0.5925985473432870
  0.9695403965680611  0.0268156913224041  0.9062717289597131
  0.8691295136487391  0.4838021651449869  0.9543741486807855
  0.2876385356095551  0.4226899745656792  0.7425497907820344
  0.0825305763883798  0.2450331785289054  0.5637943170845306
  0.8586297722895254  0.5959856945898635  0.2463164345966697
  0.6329822824081710  0.6321397744106612  0.4477833220757777
  0.0074697615619105  0.9507308898220836  0.5645041286717216
  0.5702299131464142  0.6636867641460609  0.9202964940384544
  0.6676265160574684  0.4365885460629331  0.7621310499108428
  0.7351116864965472  0.0106462013493624  0.1123920026462166
  0.3892615904563939  0.6786839695513400  0.1639611752487436
  0.9803650001194837  0.1856601752715367  0.3180686462792057
  0.7794691121904455  0.8314829557616915  0.4994249521129256
  0.8081915671561971  0.8207837116959330  0.7328006649971205
  0.7043711195201864  0.7705201173387255  0.2214846406681858
  0.3726350519641358  0.2690754301261642  0.9385859861686930
  0.4038844453493201  0.8625089653008756  0.3444997514319916
  0.1756291787876217  0.0599285599276195  0.3606069280600953
  0.2359860703002187  0.5404209028200109  0.9516552295822841
  0.1439695226419865  0.7479165975064844  0.8235167783795003
  0.0890615255162885  0.4503072368996390  0.2494000683612404
  0.3073347124614458  0.0242283973233264  0.6651297581098515
  0.9384596472168457  0.7792409741173184  0.0292934322386541
 
  0.86727892E-02  0.23419685E-02 -0.11841713E-01
  0.62674455E-02 -0.17811615E-02 -0.17874991E-03
  0.12182291E-01  0.39392533E-02  0.16564678E-03
  0.57143669E-02 -0.93432908E-02  0.70419296E-03
 -0.36323271E-02  0.10780047E-01  0.47328964E-02
 -0.83286767E-02 -0.71363325E-02 -0.30859957E-02
  0.10003318E-01 -0.36688565E-02  0.71659957E-02
 -0.96022870E-04  0.74573981E-02  0.56165798E-02
 -0.10942628E-01  0.75647645E-02 -0.10088828E-01
  0.90862778E-02  0.29117039E-02  0.90567344E-02
  0.84533433E-02 -0.61085896E-02  0.36845597E-02
  0.33071878E-02 -0.43478214E-02 -0.10119969E-01
 -0.21279715E-02 -0.36598891E-03 -0.21801083E-02
  0.33047171E-02  0.80601485E-02  0.70877268E-02
  0.12783913E-02  0.88134427E-02  0.30776056E-02
  0.71871646E-02 -0.42561144E-02  0.66631167E-02
 -0.43507824E-02 -0.74892364E-03  0.17479494E-02
  0.74949142E-03  0.10921017E-01 -0.36162799E-02
 -0.45329581E-02 -0.25523371E-02  0.73225387E-02
 -0.89849720E-02 -0.11936366E-02  0.18782340E-02
 -0.43190793E-02  0.30735266E-03  0.66648746E-02
  0.48148029E-02 -0.59992009E-02  0.29735493E-02
  0.16291200E-01  0.43120789E-02  0.82174301E-02
 -0.55723865E-02 -0.98194573E-02 -0.29395444E-02
 -0.35091132E-02  0.25025302E-02  0.13429269E-02
  0.52312942E-02  0.12300223E-01 -0.67545381E-02
 -0.14456088E-02 -0.34275152E-02  0.61164671E-02
  0.90402338E-02  0.51492398E-02 -0.18330113E-02
  0.43052551E-02  0.43686062E-02 -0.11082965E-01
  0.25875637E-02 -0.51784777E-02  0.19104349E-03
 -0.29490746E-02 -0.26066029E-02 -0.63792551E-03
 -0.90011183E-03  0.10114075E-01 -0.20893982E-02
  0.35887940E-02  0.36527444E-03 -0.51984715E-02
 -0.17179253E-02  0.74741555E-02  0.93445928E-02
 -0.13782298E-02  0.66531878E-02 -0.22181784E-02
  0.28568325E-02 -0.95747379E-02 -0.19686058E-01
 -0.74825126E-02 -0.12202900E-01 -0.18727423E-02
  0.92189511E-02  0.24310940E-02 -0.54265516E-02
 -0.89411849E-03 -0.17123660E-02 -0.43690143E-03
  0.74562412E-02  0.95689153E-02 -0.37172133E-02
  0.71881050E-02 -0.23301155E-02 -0.12084354E-01
 -0.31771413E-03 -0.41065861E-02 -0.10483487E-01
 -0.54367466E-02 -0.12255297E-02 -0.61294694E-02
  0.26851239E-02  0.30156693E-02  0.28688871E-03
 -0.23762836E-02  0.47322840E-02 -0.86152446E-02
  0.83493889E-03 -0.62236847E-02 -0.31479609E-02
  0.34596231E-02 -0.74641936E-02  0.28305736E-02
  0.30988593E-02 -0.55157436E-02  0.23862799E-02
 -0.70408508E-02  0.61510838E-02 -0.61961015E-02
 -0.24348831E-02  0.23819214E-02 -0.24611067E-02
  0.74849222E-02  0.60260499E-02 -0.61217749E-02
 -0.50797269E-02  0.71686963E-02  0.41912582E-02
 -0.21606053E-02  0.19704623E-02  0.19344454E-02
  0.26881890E-02  0.23011617E-02 -0.72020289E-02
 -0.90904852E-02  0.94292117E-03 -0.10746626E-01
  0.70386268E-03 -0.63464337E-02  0.92601931E-02
  0.81848990E-02  0.45102841E-02  0.80299703E-03
  0.33081245E-02  0.10184239E-01  0.44911313E-02
 -0.13070556E-01 -0.11891953E-01  0.86453070E-02
  0.10197535E-02  0.57319279E-02 -0.25791837E-02
  0.56232626E-03 -0.42350144E-02 -0.84329847E-03
 -0.71987482E-02 -0.58152666E-02 -0.85884644E-02
 -0.60463630E-03 -0.31193219E-02 -0.27040078E-03
 -0.77716777E-03 -0.49356308E-02  0.99050256E-03
 -0.99814287E-02  0.10306635E-01 -0.96836095E-02
  0.10713364E-01 -0.60320352E-02 -0.48682604E-02
 -0.36764172E-02  0.15924877E-02 -0.82529465E-03
 -0.16293710E-01 -0.17451386E-02  0.82030225E-02
  0.39447730E-02 -0.14937190E-01  0.22369716E-02
  0.71205689E-03  0.11228395E-01 -0.20391794E-02
  0.43428863E-02 -0.17246924E-02 -0.49198559E-02
 -0.90370210E-03 -0.12398948E-02 -0.28035930E-02
 -0.17284393E-01 -0.45118311E-02  0.23511255E-01
 -0.77417861E-02 -0.18288550E-02  0.13469235E-02
  0.23628297E-01  0.13732220E-01  0.75384147E-02
 -0.22419448E-01  0.20783437E-02 -0.67935963E-02
 -0.15747470E-01  0.52715873E-02  0.78826404E-02
 -0.12774117E-01 -0.72384027E-02 -0.16753550E-01
  0.21303938E-02 -0.49860849E-04  0.12459885E-02
 -0.10804205E-01  0.36494862E-02 -0.63855984E-02
  0.46420142E-02 -0.11180896E-01 -0.12872991E-01
  0.95400472E-02 -0.39404420E-02  0.83388586E-02
 -0.11506688E-02 -0.66546488E-02 -0.16505801E-01
 -0.51893994E-02  0.10338713E-01 -0.68054379E-02
 -0.93154990E-02  0.82610771E-02 -0.10961212E-01
 -0.90372482E-02 -0.10289665E-01  0.13169166E-01
 -0.99234426E-02  0.42226235E-02 -0.86159868E-02
  0.30805928E-02  0.55347659E-02 -0.55729882E-02
 -0.19031176E-01  0.78947183E-02  0.14667332E-02
 -0.11906825E-01  0.21996062E-01  0.17269211E-01
 -0.11670803E-01  0.40364064E-02  0.57458579E-02
  0.41686777E-02 -0.14309219E-01 -0.62977279E-02
 -0.10331340E-01 -0.44237112E-02  0.12253094E-01
  0.90254974E-03 -0.52790992E-02 -0.18814798E-01
 -0.22641376E-01  0.17527446E-01 -0.70781683E-02
  0.19390905E-03 -0.18264069E-02 -0.13635431E-01
  0.18165452E-01  0.22176965E-01 -0.11271681E-01
  0.93922085E-02  0.53451097E-02  0.15943555E-01
 -0.87090648E-02 -0.10193771E-01  0.77355118E-02
 -0.31387870E-02  0.93384500E-02  0.90283793E-02
 -0.11129656E-01 -0.29936096E-03 -0.32968693E-03
  0.31406212E-02 -0.14261688E-01 -0.69856542E-02
  0.12131757E-01 -0.16851851E-02 -0.30097788E-02
  0.12825552E-01  0.32852726E-02 -0.91455483E-02
 -0.85721064E-02  0.11729709E-01  0.14143816E-01
  0.11371460E-01 -0.27444974E-02  0.79152950E-02
 -0.14057611E-01  0.36828813E-02 -0.65394758E-02
  0.33219865E-02  0.24949513E-02 -0.28599151E-02
 -0.14282157E-01 -0.22206863E-02  0.81504189E-02
 -0.96169858E-02  0.23437315E-02  0.14278920E-01
  0.69982308E-02 -0.10977652E-01 -0.16063394E-01
  0.16415596E-01  0.18361925E-02 -0.46661576E-02
 -0.80657010E-03 -0.20680047E-01 -0.15446052E-02
  0.37943718E-02 -0.83981674E-02 -0.13762494E-01
 -0.42007403E-02 -0.19348875E-02 -0.14292311E-01
 -0.17419840E-01 -0.24414004E-01  0.12085985E-01
  0.11389486E-01  0.11591203E-02 -0.14626860E-02
  0.10970378E-02 -0.16777922E-02  0.16764235E-02
  0.17801917E-02  0.65071779E-03  0.21035700E-02
 -0.17105424E-02 -0.10480088E-02  0.38130355E-02
 
           1
   1.00000000000000     
  0.15338010E+00 -0.10222504E-02 -0.69009829E-03  0.15423627E+00
  0.72674283E+00  0.12196480E+00  0.96195441E+00
  0.30978115E+00  0.14307759E+00  0.30629567E+00
  0.46683979E+00  0.24827100E+00  0.19668213E+00
  0.30964780E-01  0.36660632E+00  0.84763123E-01
  0.66604417E+00  0.89724397E-01  0.74459989E+00
  0.22818574E-01  0.37937561E+00  0.82771119E+00
  0.24005770E-01  0.87503146E-01  0.42337411E+00
  0.28945720E+00  0.68198917E+00  0.91888570E+00
  0.47760374E-01  0.88759353E+00  0.92267352E+00
  0.94032873E+00  0.74431454E+00  0.77599202E+00
  0.90302067E+00  0.96022725E+00  0.85417770E-01
  0.70819110E+00  0.67593033E+00  0.33166364E+00
  0.21917561E+00  0.17031685E+00  0.54953760E+00
  0.41515715E-01  0.33763405E+00  0.41750501E+00
  0.23250959E-01  0.56316031E+00  0.68583349E+00
  0.63672944E-01  0.67352503E+00  0.93182027E+00
  0.86003824E+00  0.76501740E+00  0.21570437E+00
  0.81762646E+00  0.23388867E+00  0.38617485E+00
  0.47768844E+00  0.81459571E+00  0.95457424E+00
  0.12362748E+00  0.22032935E-02  0.70955422E+00
  0.30427611E+00  0.85973892E+00  0.58800358E-01
  0.51577174E+00  0.73130133E-02  0.84270488E-01
  0.42593980E+00  0.46070736E+00  0.67259745E+00
  0.84358161E+00  0.26981005E+00  0.17356577E+00
  0.27914016E+00  0.35512347E+00  0.26518850E+00
  0.97413447E+00  0.57419183E+00  0.12400605E+00
  0.50984447E+00  0.98136301E+00  0.38170383E+00
  0.18838342E+00  0.52007835E+00  0.79867536E+00
  0.55602559E+00  0.38394422E+00  0.33851223E-01
  0.37114627E-01  0.16285630E+00  0.97592353E+00
  0.68487896E+00  0.84910896E+00  0.51784536E-01
  0.56082077E+00  0.53857824E+00  0.85714457E+00
  0.29595230E+00  0.15892333E+00  0.81615270E+00
  0.66526204E+00  0.13002572E+00  0.24826816E+00
  0.47665523E+00  0.80968513E+00  0.18800039E+00
  0.66819461E+00  0.80647208E-01  0.47606441E+00
  0.45228294E+00  0.68081745E+00  0.66492527E+00
  0.96533765E-01  0.83092842E+00  0.14377337E+00
  0.46944295E+00  0.15183568E+00  0.66474684E+00
  0.52337930E+00  0.18169314E+00  0.87999613E+00
  0.68409198E+00  0.35911782E+00  0.28406855E+00
  0.17338094E+00  0.30261494E-01  0.95241025E-01
  0.82412304E+00  0.95063796E+00  0.85046824E+00
  0.75648379E-01  0.76933285E+00  0.62248985E+00
  0.25380690E+00  0.19644493E+00  0.38340684E-02
  0.89243888E+00  0.15236675E+00  0.81145295E+00
  0.47357780E+00  0.57698027E+00  0.66757847E-01
  0.85624616E+00  0.68612620E+00  0.58303956E+00
  0.16441040E+00  0.37336045E+00  0.65128757E+00
  0.59889121E+00  0.76940807E+00  0.52446673E+00
  0.62498725E+00  0.30446009E+00  0.69343407E+00
  0.11451669E+00  0.60076735E+00  0.38099663E+00
  0.29252178E+00  0.51947930E+00  0.49984565E+00
  0.85070141E+00  0.95049042E+00  0.58155289E+00
  0.48286624E+00  0.90097277E+00  0.65280948E+00
  0.35739939E+00  0.40425093E+00  0.92257832E+00
  0.28703062E+00  0.88973819E+00  0.83361084E+00
  0.79119634E+00  0.40141444E+00  0.83861394E+00
  0.91152926E+00  0.48003997E+00  0.34099369E+00
  0.24753961E+00  0.53714588E+00  0.12238928E+00
  0.50025829E+00  0.57273941E+00  0.49149031E+00
  0.69726094E+00  0.92698049E+00  0.29240465E+00
  0.43383029E+00  0.31191080E+00  0.44546457E+00
  0.91650788E+00  0.25196278E+00  0.60994404E+00
  0.91865580E-01  0.21954678E+00  0.20944590E+00
  0.34846886E+00  0.72616714E+00  0.38921780E+00
  0.24593702E+00  0.95855875E+00  0.49360371E+00
  0.65076459E+00  0.77792863E+00  0.73072730E+00
  0.63735492E+00  0.55392816E+00  0.65724959E+00
  0.25083865E+00  0.93748378E+00  0.27288767E+00
  0.80665903E+00  0.60930831E+00  0.17784218E-01
  0.43928494E+00  0.58023312E+00  0.28406504E+00
  0.38348918E+00  0.59584607E+00  0.42089212E+00
  0.15141565E+00  0.17337576E+00  0.69374128E-01
  0.54021286E+00  0.78149503E+00  0.64664887E+00
  0.32311374E+00  0.81633653E+00  0.92905500E+00
  0.37642293E+00  0.26494974E+00  0.29334025E+00
  0.57048894E+00  0.19277229E+00  0.74721697E+00
  0.76379622E+00  0.71033967E-01  0.84298364E+00
  0.20657613E+00  0.91179728E+00  0.16161670E+00
  0.75314745E+00  0.24200983E+00  0.27352143E+00
  0.55517463E+00  0.87906456E+00  0.68588940E-01
  0.93695509E-01  0.45273357E+00  0.74587239E+00
  0.63379313E+00  0.37943150E-01  0.36500114E+00
  0.51229062E+00  0.56005389E+00  0.62383641E+00
  0.96557966E+00  0.67927721E+00  0.65892999E+00
  0.47710438E+00  0.47479493E+00  0.96179782E+00
  0.89856782E+00  0.24523219E+00  0.10095180E-01
  0.40647407E+00  0.36903502E-01  0.20392408E+00
  0.89018190E+00  0.28668321E+00  0.76128308E+00
  0.89227062E+00  0.36373376E+00  0.47481836E+00
  0.54587999E+00  0.40731463E+00  0.22445797E+00
  0.58414099E+00  0.20654761E+00  0.47485954E-01
  0.16422304E+00  0.68078008E+00  0.51399258E+00
  0.82708815E+00  0.13259033E+00  0.54239113E+00
  0.28668523E+00  0.37243425E+00  0.49929936E+00
  0.49563595E+00  0.30918002E+00  0.59161895E+00
  0.97035665E+00  0.27280221E-01  0.90765734E+00
  0.86837263E+00  0.48291625E+00  0.95504642E+00
  0.28736575E+00  0.42350155E+00  0.74333442E+00
  0.81563327E-01  0.24500716E+00  0.56376566E+00
  0.85890272E+00  0.59474625E+00  0.24570933E+00
  0.63403662E+00  0.63199332E+00  0.44752175E+00
  0.85843969E-02  0.95101640E+00  0.56370931E+00
  0.56948493E+00  0.66470616E+00  0.92152570E+00
  0.66861478E+00  0.43635003E+00  0.76281895E+00
  0.73388998E+00  0.10966271E-01  0.11182367E+00
  0.38955030E+00  0.67890080E+00  0.16371263E+00
  0.97912377E+00  0.18546718E+00  0.31877698E+00
  0.77863332E+00  0.83168664E+00  0.50066590E+00
  0.80879977E+00  0.81982967E+00  0.73140464E+00
  0.70579776E+00  0.77067970E+00  0.22107912E+00
  0.37256496E+00  0.26727818E+00  0.93845175E+00
  0.40421420E+00  0.86177910E+00  0.34330369E+00
  0.17526410E+00  0.59760404E-01  0.35936482E+00
  0.23447216E+00  0.53829915E+00  0.95270559E+00
  0.14495935E+00  0.74801733E+00  0.82338966E+00
  0.89156866E-01  0.45016142E+00  0.24954576E+00
  0.30748942E+00  0.24284950E-01  0.66531257E+00
  0.93831099E+00  0.77914989E+00  0.29624813E-01
  0.74804469E-03  0.20754899E-03 -0.10418540E-02
  0.52222100E-03 -0.17045687E-03 -0.16105663E-04
  0.10540282E-02  0.33395498E-03  0.60565832E-05
  0.49736545E-03 -0.82924775E-03  0.66954035E-04
 -0.33169963E-03  0.92929791E-03  0.39837333E-03
 -0.71707982E-03 -0.62280570E-03 -0.26102286E-03
  0.86289298E-03 -0.30145189E-03  0.60972667E-03
 -0.18901489E-04  0.60634333E-03  0.49881755E-03
 -0.96644389E-03  0.63822041E-03 -0.85652456E-03
  0.80821721E-03  0.25367401E-03  0.78256485E-03
  0.75212422E-03 -0.54694985E-03  0.32238256E-03
  0.27816795E-03 -0.35467763E-03 -0.87905148E-03
 -0.20143079E-03 -0.35062408E-04 -0.19925211E-03
  0.26586302E-03  0.71076291E-03  0.61432211E-03
  0.11552063E-03  0.78437226E-03  0.28194786E-03
  0.61565929E-03 -0.34311552E-03  0.56805723E-03
 -0.39643158E-03 -0.58748433E-04  0.16880340E-03
  0.41384686E-04  0.95966827E-03 -0.33521836E-03
 -0.40467001E-03 -0.22414027E-03  0.63420491E-03
 -0.77297586E-03 -0.10034355E-03  0.17617618E-03
 -0.35064230E-03  0.24830528E-04  0.56693504E-03
  0.40379959E-03 -0.51356580E-03  0.25768208E-03
  0.13976865E-02  0.38551519E-03  0.72370322E-03
 -0.47384958E-03 -0.82884124E-03 -0.25334430E-03
 -0.31172126E-03  0.21237748E-03  0.97693306E-04
  0.43380215E-03  0.10626624E-02 -0.61714237E-03
 -0.11043314E-03 -0.31054514E-03  0.55148111E-03
  0.75607143E-03  0.42531684E-03 -0.18255255E-03
  0.38235185E-03  0.38582895E-03 -0.95012931E-03
  0.21489067E-03 -0.44905713E-03 -0.12424806E-04
 -0.23833311E-03 -0.23060172E-03 -0.65883069E-04
 -0.49343121E-04  0.92651109E-03 -0.19980284E-03
  0.30490679E-03  0.50866796E-04 -0.40077343E-03
 -0.16138284E-03  0.63482568E-03  0.80679443E-03
 -0.14778420E-03  0.55806713E-03 -0.17615583E-03
  0.22650201E-03 -0.84721807E-03 -0.17261779E-02
 -0.64068185E-03 -0.10465797E-02 -0.17164121E-03
  0.78582093E-03  0.21679322E-03 -0.48571100E-03
 -0.82391444E-04 -0.16512816E-03 -0.28069557E-04
  0.64551126E-03  0.80649911E-03 -0.30960974E-03
  0.64085967E-03 -0.19979768E-03 -0.10467261E-02
 -0.26675127E-04 -0.35641267E-03 -0.93027055E-03
 -0.46252619E-03 -0.10278275E-03 -0.53330014E-03
  0.22906115E-03  0.27472898E-03  0.42835521E-04
 -0.23265324E-03  0.37858976E-03 -0.77141098E-03
  0.10983286E-03 -0.49627080E-03 -0.29419868E-03
  0.29718754E-03 -0.63778334E-03  0.29307369E-03
  0.25728674E-03 -0.48749585E-03  0.21215205E-03
 -0.60355989E-03  0.53104331E-03 -0.53559126E-03
 -0.21679756E-03  0.20293143E-03 -0.20912151E-03
  0.66527568E-03  0.53478640E-03 -0.53084523E-03
 -0.44070461E-03  0.62752885E-03  0.37295729E-03
 -0.19726012E-03  0.13346202E-03  0.19571767E-03
  0.22550293E-03  0.20504005E-03 -0.62338577E-03
 -0.75790417E-03  0.65089955E-04 -0.93913966E-03
  0.42124802E-04 -0.62198499E-03  0.81317146E-03
  0.71479709E-03  0.38846580E-03  0.93187177E-04
  0.27187114E-03  0.89197661E-03  0.37754935E-03
 -0.11296483E-02 -0.10378236E-02  0.75745592E-03
  0.12043599E-03  0.50107158E-03 -0.23341200E-03
  0.59125510E-04 -0.34980213E-03 -0.63648861E-04
 -0.62880537E-03 -0.51711792E-03 -0.75338437E-03
 -0.35858427E-04 -0.26644779E-03  0.83938513E-06
 -0.69024549E-04 -0.43827110E-03  0.10665083E-03
 -0.88521672E-03  0.90552648E-03 -0.83078121E-03
  0.94415567E-03 -0.50778641E-03 -0.45522676E-03
 -0.32247517E-03  0.14939632E-03 -0.81728095E-04
 -0.14049662E-02 -0.15345236E-03  0.70350399E-03
  0.33570917E-03 -0.12824181E-02  0.21050865E-03
  0.32330230E-04  0.98272504E-03 -0.21300622E-03
  0.39097968E-03 -0.17443354E-03 -0.41261749E-03
 -0.71018758E-04 -0.78967782E-04 -0.27750888E-03
 -0.15047057E-02 -0.41276131E-03  0.21192277E-02
 -0.54375539E-03 -0.79427876E-04  0.10464995E-03
  0.19444855E-02  0.11516873E-02  0.65776942E-03
 -0.20188452E-02  0.24228318E-03 -0.68940979E-03
 -0.13091463E-02  0.50535868E-03  0.65570046E-03
 -0.11221170E-02 -0.55210432E-03 -0.15193254E-02
  0.15611198E-03 -0.30906168E-04  0.13373939E-03
 -0.85513292E-03  0.32201459E-03 -0.36265138E-03
  0.43216845E-03 -0.10333129E-02 -0.10747802E-02
  0.92467021E-03 -0.30974782E-03  0.72528118E-03
 -0.27269031E-04 -0.55453424E-03 -0.13941290E-02
 -0.43063070E-03  0.98699649E-03 -0.53121786E-03
 -0.74948505E-03  0.70535851E-03 -0.10116047E-02
 -0.77209267E-03 -0.93156679E-03  0.11256500E-02
 -0.91189367E-03  0.35138049E-03 -0.81082332E-03
  0.22923626E-03  0.48631902E-03 -0.50904144E-03
 -0.16493683E-02  0.66117149E-03  0.11225941E-03
 -0.10447415E-02  0.18176500E-02  0.14997517E-02
 -0.10051884E-02  0.35644312E-03  0.51153702E-03
  0.35882353E-03 -0.12688087E-02 -0.51924713E-03
 -0.88882362E-03 -0.39087443E-03  0.10921712E-02
  0.72276891E-04 -0.44479888E-03 -0.16012210E-02
 -0.19421903E-02  0.15542665E-02 -0.60312139E-03
  0.22400254E-04 -0.10490114E-03 -0.11919941E-02
  0.15748656E-02  0.19226460E-02 -0.95215435E-03
  0.77579177E-03  0.42777088E-03  0.13932780E-02
 -0.76276188E-03 -0.87867200E-03  0.68962103E-03
 -0.33274772E-03  0.82982900E-03  0.77996262E-03
 -0.94257549E-03 -0.26948496E-04 -0.28946791E-04
  0.31915553E-03 -0.12722246E-02 -0.61867989E-03
  0.10274304E-02 -0.17149751E-03 -0.27586474E-03
  0.10959685E-02  0.27164728E-03 -0.80622857E-03
 -0.75161530E-03  0.91730768E-03  0.11921780E-02
  0.99542776E-03 -0.28492906E-03  0.67044278E-03
 -0.12487394E-02  0.32582658E-03 -0.58721031E-03
  0.28725809E-03  0.26681141E-03 -0.24574762E-03
 -0.12233658E-02 -0.20493998E-03  0.71839039E-03
 -0.80402415E-03  0.21751904E-03  0.12457235E-02
  0.64344986E-03 -0.98056495E-03 -0.13887904E-02
  0.14470342E-02  0.10175326E-03 -0.41458498E-03
 -0.70768220E-04 -0.16217643E-02 -0.12669461E-03
  0.30432327E-03 -0.73183534E-03 -0.12077744E-02
 -0.37670416E-03 -0.18078072E-03 -0.12645439E-02
 -0.15002407E-02 -0.21159984E-02  0.99752766E-03
  0.10038123E-02  0.87528034E-04 -0.11862581E-03
  0.93741117E-04 -0.14622789E-03  0.14888724E-03
  0.15539952E-03  0.54026319E-04  0.18107131E-03
 -0.14674086E-03 -0.88684533E-04  0.32947970E-03
  0.00000000E+00  0.00000000E+00  0.00000000E+00
  0.00000000E+00  0.00000000E+00  0.00000000E+00
  0.00000000E+00  0.00000000E+00  0.00000000E+00
  0.00000000E+00  0.00000000E+00  0.00000000E+00
  0.00000000E+00  0.00000000E+00  0.00000000E+00
  0.00000000E+00  0.00000000E+00  0.00000000E+00
  0.00000000E+00  0.00000000E+00  0.00000000E+00
  0.00000000E+00  0.00000000E+00  0.00000000E+00
  0.00000000E+00  0.00000000E+00  0.00000000E+00
  0.00000000E+00  0.00000000E+00  0.00000000E+00
  0.00000000E+00  0.00000000E+00  0.00000000E+00
  0.00000000E+00  0.00000000E+00  0.00000000E+00
  0.00000000E+00  0.00000000E+00  0.00000000E+00
  0.00000000E+00  0.00000000E+00  0.00000000E+00
  0.00000000E+00  0.00000000E+00  0.00000000E+00
  0.00000000E+00  0.00000000E+00  0.00000000E+00
  0.00000000E+00  0.00000000E+00  0.00000000E+00
  0.00000000E+00  0.00000000E+00  0.00000000E+00
  0.00000000E+00  0.00000000E+00  0.00000000E+00
  0.00000000E+00  0.00000000E+00  0.00000000E+00
  0.00000000E+00  0.00000000E+00  0.00000000E+00
  0.00000000E+00  0.00000000E+00  0.00000000E+00
  0.00000000E+00  0.00000000E+00  0.00000000E+00
  0.00000000E+00  0.00000000E+00  0.00000000E+00
  0.00000000E+00  0.00000000E+00  0.00000000E+00
  0.00000000E+00  0.00000000E+00  0.00000000E+00
  0.00000000E+00  0.00000000E+00  0.00000000E+00
  0.00000000E+00  0.00000000E+00  0.00000000E+00
  0.00000000E+00  0.00000000E+00  0.00000000E+00
  0.00000000E+00  0.00000000E+00  0.00000000E+00
  0.00000000E+00  0.00000000E+00  0.00000000E+00
  0.00000000E+00  0.00000000E+00  0.00000000E+00
  0.00000000E+00  0.00000000E+00  0.00000000E+00
  0.00000000E+00  0.00000000E+00  0.00000000E+00
  0.00000000E+00  0.00000000E+00  0.00000000E+00
  0.00000000E+00  0.00000000E+00  0.00000000E+00
  0.00000000E+00  0.00000000E+00  0.00000000E+00
  0.00000000E+00  0.00000000E+00  0.00000000E+00
  0.00000000E+00  0.00000000E+00  0.00000000E+00
  0.00000000E+00  0.00000000E+00  0.00000000E+00
  0.00000000E+00  0.00000000E+00  0.00000000E+00
  0.00000000E+00  0.00000000E+00  0.00000000E+00
  0.00000000E+00  0.00000000E+00  0.00000000E+00
  0.00000000E+00  0.00000000E+00  0.00000000E+00
  0.00000000E+00  0.00000000E+00  0.00000000E+00
  0.00000000E+00  0.00000000E+00  0.00000000E+00
  0.00000000E+00  0.00000000E+00  0.00000000E+00
  0.00000000E+00  0.00000000E+00  0.00000000E+00
  0.00000000E+00  0.00000000E+00  0.00000000E+00
  0.00000000E+00  0.00000000E+00  0.00000000E+00
  0.00000000E+00  0.00000000E+00  0.00000000E+00
  0.00000000E+00  0.00000000E+00  0.00000000E+00
  0.00000000E+00  0.00000000E+00  0.00000000E+00
  0.00000000E+00  0.00000000E+00  0.00000000E+00
  0.00000000E+00  0.00000000E+00  0.00000000E+00
  0.00000000E+00  0.00000000E+00  0.00000000E+00
  0.00000000E+00  0.00000000E+00  0.00000000E+00
  0.00000000E+00  0.00000000E+00  0.00000000E+00
  0.00000000E+00  0.00000000E+00  0.00000000E+00
  0.00000000E+00  0.00000000E+00  0.00000000E+00
  0.00000000E+00  0.00000000E+00  0.00000000E+00
  0.00000000E+00  0.00000000E+00  0.00000000E+00
  0.00000000E+00  0.00000000E+00  0.00000000E+00
  0.00000000E+00  0.00000000E+00  0.00000000E+00
  0.00000000E+00  0.00000000E+00  0.00000000E+00
  0.00000000E+00  0.00000000E+00  0.00000000E+00
  0.00000000E+00  0.00000000E+00  0.00000000E+00
  0.00000000E+00  0.00000000E+00  0.00000000E+00
  0.00000000E+00  0.00000000E+00  0.00000000E+00
  0.00000000E+00  0.00000000E+00  0.00000000E+00
  0.00000000E+00  0.00000000E+00  0.00000000E+00
  0.00000000E+00  0.00000000E+00  0.00000000E+00
  0.00000000E+00  0.00000000E+00  0.00000000E+00
  0.00000000E+00  0.00000000E+00  0.00000000E+00
  0.00000000E+00  0.00000000E+00  0.00000000E+00
  0.00000000E+00  0.00000000E+00  0.00000000E+00
  0.00000000E+00  0.00000000E+00  0.00000000E+00
  0.00000000E+00  0.00000000E+00  0.00000000E+00
  0.00000000E+00  0.00000000E+00  0.00000000E+00
  0.00000000E+00  0.00000000E+00  0.00000000E+00
  0.00000000E+00  0.00000000E+00  0.00000000E+00
  0.00000000E+00  0.00000000E+00  0.00000000E+00
  0.00000000E+00  0.00000000E+00  0.00000000E+00
  0.00000000E+00  0.00000000E+00  0.00000000E+00
  0.00000000E+00  0.00000000E+00  0.00000000E+00
  0.00000000E+00  0.00000000E+00  0.00000000E+00
  0.00000000E+00  0.00000000E+00  0.00000000E+00
  0.00000000E+00  0.00000000E+00  0.00000000E+00
  0.00000000E+00  0.00000000E+00  0.00000000E+00
  0.00000000E+00  0.00000000E+00  0.00000000E+00
  0.00000000E+00  0.00000000E+00  0.00000000E+00
  0.00000000E+00  0.00000000E+00  0.00000000E+00
  0.00000000E+00  0.00000000E+00  0.00000000E+00
  0.00000000E+00  0.00000000E+00  0.00000000E+00