POSCAR file written by OVITO Basic 3.10.
   1.00000000000000     
    12.7410999999999994    0.0000000000000000    0.0000000000000000
     0.0000000000000000   12.7410999999999994    0.0000000000000000
     0.0000000000000000    0.0000000000000000   12.7410999999999994
   F    Be   Li   Th
   100    15    30    10
Direct
  0.7147949740497530  0.9993405645699550  0.9742640315846707
  0.3312290751988415  0.4004244509090158  0.1866713390002494
  0.3597017116156203  0.8393471743545894  0.6021963499760429
  0.0221315100690452  0.6425009910280034  0.3060328421187812
  0.8697898279670870  0.5557383060649386  0.5442938658319773
  0.9394227309175749  0.9374837236860110  0.1999962016259972
  0.2698590151022413  0.1750011920288465  0.1428507774528947
  0.7759465631724746  0.5350321899340368  0.7277834598003836
  0.7443345383391841  0.0245479065006786  0.1913215495566564
  0.4416172511434858  0.2077642059706638  0.6352194185898814
  0.2368803207961024  0.0220608239931538  0.9372777926297133
  0.5692037955686734  0.0707012531059997  0.6211825605034891
  0.4982993232064767  0.6314283459165320  0.0139260913026309
  0.7591009073633591  0.4280279976143225  0.4370672015964769
  0.0215494795039350  0.4543214899344699  0.4696378206369617
  0.3064221388304924  0.6803686920498538  0.4193661189420661
  0.1988849323605219  0.4453411020764922  0.6600613498605220
  0.0301700273259404  0.8600642874547612  0.3615632592086049
  0.5509059487302560  0.2625706883101905  0.0501600049906102
  0.4466044241434127  0.5856463231615282  0.3391719197604721
  0.4154992954808471  0.6174176327077011  0.7121381192985440
  0.6920552693260306  0.6653368702980157  0.5037963085668564
  0.8108795111600648  0.3792576492718743  0.8495195099896347
  0.6950615277981085  0.8497242595650437  0.7953135460207402
  0.0459552322939826  0.6603539734974631  0.5030745987168183
  0.6550923034843343  0.3144769520059870  0.6431914381930309
  0.1516529883646772  0.1015357767856642  0.7918887088533947
  0.0516239066321878  0.0215794248836835  0.0484195151865079
  0.6589286666463892  0.2845388008521441  0.2346742069770472
  0.2068444687561005  0.2877185924643074  0.0126210491844411
  0.0120283692340173  0.3610943582000935  0.0764573086255399
  0.3353876630041167  0.1606534232151469  0.8043932105557220
  0.9128563351417829  0.1503616457025548  0.2147391376749563
  0.0577804861189225  0.5502855048414402  0.1180631000701780
  0.4472029195332362  0.0593720098324276  0.9874017189510871
  0.1414318836971857  0.9752880703000066  0.2442858024815523
  0.3873814953854182  0.4968401616232005  0.5223427968983759
  0.1287174681906079  0.3968889582089654  0.2117106857091066
  0.3835289136782409  0.0266749844158709  0.5360136769775096
  0.7728824971521204  0.0655612409916322  0.6985582865448452
  0.2909826646206940  0.6279750936480398  0.1795073643370296
  0.7330601130330198  0.2009272231439811  0.0681137900394023
  0.5011608621869297  0.6970018690132824  0.5007082340658686
  0.5926105096253810  0.4256141121824651  0.3455774349772511
  0.5758209385309959  0.0310012247530327  0.3947389913951305
  0.9159550656155759  0.5189516593410374  0.9233187679925784
  0.8488837508363507  0.8900507801510777  0.5623556543823829
  0.0579772291736144  0.8269622374884926  0.8852749946491635
  0.8502918104710291  0.6451371789439367  0.0875670459060013
  0.3157835577496566  0.7613554439027471  0.8595515796217367
  0.8566851508498934  0.7478916370126434  0.3963634282515206
  0.3108458945231099  0.1299147967463535  0.3533596879247379
  0.4921338026579691  0.8717085924289294  0.0877609575235358
  0.9154473492452027  0.4485208417200878  0.2235944834584619
  0.9926873287538370  0.0079925377776165  0.7022028070044314
  0.5607583406038111  0.4213631516200563  0.8515997757353069
  0.3908221205541578  0.3270302807568550  0.8898352513410694
  0.2757492741003486  0.9130689890432960  0.4367405410956476
  0.8020487708655349  0.1295401885355826  0.4802773449861532
  0.9450955242531405  0.2600099382307566  0.3839153509696087
  0.4082047511828317  0.9997506098946981  0.2593481466061717
  0.9971033224924748  0.7681100261088581  0.6524939483860170
  0.9255165005210592  0.1832426646954715  0.7711746388756385
  0.7279335531190150  0.6250207003638937  0.2565480599364754
  0.2891801732695245  0.4667983713039102  0.9796591759351277
  0.0845127930850505  0.7773747782612842  0.0928019453770623
  0.5437197083020138  0.4811976017784050  0.6506843629519260
  0.3809439504944785  0.4249036257094407  0.7026327925794599
  0.0050686136288358  0.0644848966208315  0.3578737886315942
  0.5671881631491411  0.4879944022726136  0.1303937512656554
  0.8461659800307391  0.7257136524865716  0.8168359647294723
  0.0815034571754183  0.3703777740713162  0.8166939997418906
  0.0791879626923790  0.2172430537422146  0.6154137632492098
  0.2358599557835656  0.2928198984729280  0.4886410766102069
  0.3354178130049514  0.9711500014211548  0.7759189406179102
  0.8798279441263830  0.8340176300662396  0.0103685649327988
  0.8640378547748291  0.3302506633807027  0.6159774966946565
  0.5623618628877843  0.1017999086994939  0.1699636036750265
  0.0983653609773326  0.1966327338176491  0.2579144925548605
  0.6867249205444536  0.5473095431126694  0.9186134862555019
  0.0259925287721927  0.5588908577096469  0.6519806782199790
  0.5178696727901426  0.7842063754595430  0.8230863055629852
  0.1929347997143934  0.9658758763520154  0.6197208871563498
  0.6611960972377554  0.1852373630024548  0.8329048198996789
  0.4676067127968392  0.8217104639333103  0.3466786412581273
  0.9183039302772528  0.1831142154796899  0.9975623128402242
  0.8649828187122048  0.0125774009077518  0.8422975435598623
  0.2555229971845149  0.4812764422195053  0.3899766050589314
  0.5619245881910754  0.7253302747082704  0.2043366164323806
  0.6211000245679839  0.6904659914139206  0.6871320264711376
  0.5382964581965919  0.9751817595355539  0.8374019148872958
  0.7042121745334180  0.8200898831312070  0.1753146592742548
  0.6266430272673358  0.8471751929088431  0.5820738822382759
  0.1889077432844548  0.6786151134924615  0.6410875075774326
  0.6355566734568204  0.7669516504402658  0.9682841342714130
  0.6472734393535634  0.2320923637070968  0.4292595574569853
  0.7033722777384847  0.9040125302547354  0.3853361282676151
  0.4586054776468892  0.2804118543208419  0.3294677625055294
  0.2911459787191488  0.8803645594021883  0.0721236534303301
  0.1111933317778409  0.5695889518110338  0.9271720855153850
  0.9062640963759441  0.0659307868116090  0.7447638441359519
  0.3539292463257797  0.5670222516121440  0.4066426107950176
  0.2906018183663446  0.3454887073708532  0.9597809417255733
  0.5823963530396219  0.3034083714275516  0.3538338841987022
  0.7948311932732346  0.5017592967235933  0.8457113627072563
  0.4319193966774011  0.5246691207113673  0.6484908444342273
  0.2960372202240862  0.9471921240844288  0.5446371364014708
  0.2573050750523957  0.0683418512211027  0.8282601815731002
  0.0371953201943647  0.9487363806594269  0.2949413974631198
  0.6089551194038847  0.7842505084824779  0.7486639070576289
  0.0776294153057800  0.6679025538352310  0.6167536824129155
  0.9858320301844751  0.1751260116685786  0.3108700295342127
  0.0176791641861273  0.4330306213381007  0.1637782846145547
  0.5976850841066703  0.7223629127514594  0.5600806409366912
  0.6336223898696516  0.2207334907153651  0.1379955825827555
  0.7427916897705382  0.2418161447950943  0.9283775127449502
  0.2970689414542962  0.7450033914904898  0.6994495036858156
  0.2877386485108266  0.4050488242338388  0.5689068570798742
  0.4433179526923064  0.0463280985506355  0.4106649680271480
  0.1638419680421124  0.7030525177812345  0.2127343364606660
  0.8252482426579888  0.8398728765956149  0.2541000041886577
  0.2539738209512472  0.5212155368936633  0.1071017224220789
  0.0960630075176855  0.0744168858150399  0.6318118073502439
  0.1058905014800882  0.5514028580905267  0.4268703679356212
  0.0481608317260832  0.1758177466715587  0.8685386651560136
  0.4303646046031562  0.6267680909520201  0.1741190165104530
  0.2730902292497415  0.0193703245353445  0.2731065668992249
  0.9491476716961751  0.8531342487943496  0.7473429758149079
  0.7631120663623380  0.4406128913825504  0.5986246563618013
  0.6715775692537446  0.0289100167348222  0.8145141084274488
  0.1310801565662654  0.1257566976406499  0.1154189470644547
  0.7652810109886929  0.8076151240103893  0.9135555312515399
  0.7730972742694859  0.2597332561473675  0.7013774177726831
  0.7778182722250797  0.2944333164396966  0.4162946940582581
  0.2216366714025370  0.5440680471640661  0.8529566039336468
  0.9801444793071533  0.3793557603765216  0.9410240010338781
  0.4913805989662067  0.3680001627904155  0.1582091065002905
  0.1461809024648387  0.9158453123836285  0.0278034943646008
  0.4510465442244754  0.1679994960896285  0.0651160263971147
  0.5479393273569653  0.6296291949792593  0.8748291001079115
  0.3498927167794586  0.8057225434801505  0.4551297833639845
  0.8106153969322762  0.6550226633884906  0.6147016034204013
  0.4302026696326645  0.0515927020772582  0.6755241315650180
  0.9790120059883071  0.8003713548104369  0.4957718159041395
  0.5649017579906450  0.5622611401352360  0.4021481778503385
  0.4104985022921105  0.9004824759248713  0.9390732003515113
  0.8620954397571636  0.0319991777284249  0.0631837457482554
  0.9869127551430636  0.6833747371158425  0.9702178979832025
  0.6561551306165160  0.6376354391305314  0.1005102000823826
  0.0383201419304221  0.3787635345059553  0.6475848461890575
  0.5183024252037447  0.3026146550819113  0.7448151456145613
  0.2546879544805049  0.2872797043318969  0.3105338767714194
  0.7146409756235635  0.9985545212126190  0.5385545365366992
  0.8722605072538674  0.5726633424931743  0.3682013216263971
  0.5718458215320524  0.9258432896395200  0.2408157084444622
 
  0.68855022E-03  0.10607583E-01 -0.76192904E-02
 -0.18956657E-02  0.16970238E-02 -0.16589093E-02
  0.58923828E-03  0.12587490E-01 -0.28920107E-02
  0.47323602E-02 -0.74872492E-02  0.10137921E-01
 -0.47192402E-02  0.98787242E-02  0.93645319E-02
  0.63769116E-03  0.86751474E-02  0.28124613E-02
  0.42795353E-02 -0.43807307E-02 -0.40013373E-02
  0.21321059E-02  0.78493872E-02  0.62874642E-03
  0.19772289E-02 -0.96136875E-02  0.27149743E-03
  0.60925882E-02  0.14071117E-01 -0.27752305E-02
 -0.89309925E-02  0.89887317E-02  0.11218805E-01
 -0.91542832E-02  0.26989781E-03 -0.21024750E-02
 -0.80464051E-02 -0.14393429E-02 -0.28839738E-02
  0.17076415E-02 -0.30194376E-02  0.41161242E-03
 -0.19766378E-02  0.83952779E-02  0.10492597E-01
 -0.29434231E-02  0.32617980E-02  0.28081473E-02
  0.89303500E-02 -0.11085855E-01  0.34080929E-02
  0.16534339E-02 -0.24413871E-02  0.88391709E-02
  0.22433456E-02  0.74949150E-02  0.40409046E-02
 -0.12096587E-02 -0.19743855E-02 -0.65551649E-03
 -0.11077912E-02 -0.75230481E-02 -0.10361596E-01
 -0.24478265E-02 -0.76386256E-02 -0.62935376E-02
  0.63831092E-03  0.26767894E-02 -0.18350530E-02
 -0.41483407E-02 -0.57557336E-04  0.24638839E-02
 -0.37056297E-02  0.30291312E-02  0.15660070E-01
 -0.12911841E-01 -0.20655610E-02 -0.75943173E-03
  0.33288564E-02  0.17164509E-02  0.43270364E-02
  0.19357845E-02 -0.41673495E-02  0.70237585E-02
 -0.34762546E-02  0.68671623E-02 -0.12574028E-02
 -0.53108371E-02  0.29471806E-02 -0.68904166E-02
 -0.45765679E-02  0.19769899E-02 -0.32930724E-02
 -0.44214357E-02 -0.14413211E-02  0.71841936E-02
  0.13394113E-02  0.53673799E-02  0.73947431E-02
  0.54370156E-02  0.66339087E-02 -0.40857756E-02
  0.15542539E-01 -0.80972849E-02  0.45354495E-02
  0.82400228E-02  0.28757735E-02 -0.12357607E-01
  0.53748236E-02  0.41997566E-02 -0.43278153E-02
  0.94476127E-02 -0.19643494E-02  0.59592101E-03
  0.43513097E-02  0.54506203E-02 -0.17835120E-02
  0.51419306E-02 -0.19155280E-02  0.83990578E-03
  0.32262258E-02  0.33174867E-02 -0.34403644E-02
 -0.90226052E-03 -0.25278906E-02  0.43008697E-02
  0.84061986E-03  0.10803705E-02  0.10167767E-01
  0.74742805E-02 -0.13545741E-01  0.87599628E-03
  0.45870141E-02 -0.74448982E-02  0.38590056E-02
  0.23283853E-02 -0.37684362E-02  0.46846998E-02
 -0.14683273E-01 -0.68055165E-03  0.44922990E-02
  0.14775373E-01 -0.58131833E-02 -0.28270347E-02
 -0.11281670E-01  0.70784073E-02  0.44979774E-02
  0.20238821E-02 -0.33605684E-02  0.30365241E-02
 -0.11632931E-02  0.10233875E-01 -0.46438042E-02
  0.11032713E-01  0.25688235E-02  0.98285176E-03
 -0.30559196E-02 -0.27531146E-02 -0.30516543E-02
 -0.42933019E-02  0.60844651E-02 -0.24883887E-02
  0.10094814E-01 -0.75605892E-02  0.75607573E-02
  0.58280955E-02  0.19863537E-02 -0.71980118E-02
 -0.53882666E-02 -0.46049319E-02  0.47416449E-03
  0.99446648E-02 -0.22699776E-02  0.10420211E-01
 -0.75678892E-02 -0.70994872E-03  0.56670103E-02
  0.20306101E-02 -0.18830702E-02 -0.48916608E-02
 -0.53672439E-02  0.60696390E-02  0.17962163E-02
  0.11553622E-02  0.19577716E-02 -0.31303786E-02
 -0.17537089E-01  0.32790457E-02 -0.22542865E-02
  0.53767418E-02 -0.43270685E-02 -0.17524840E-02
 -0.83757317E-02  0.28789296E-02 -0.36674022E-02
  0.95155532E-03  0.71212105E-02 -0.57070258E-03
 -0.13164833E-01 -0.99782977E-03  0.75823802E-02
  0.86905090E-02  0.61411804E-02  0.83322258E-02
 -0.15154639E-01 -0.78083658E-02  0.58678168E-02
  0.46854016E-02 -0.34228458E-02 -0.10818382E-01
 -0.84014592E-02 -0.53233627E-02 -0.11431342E-02
  0.33972198E-02 -0.80427847E-02 -0.27084520E-02
 -0.28729332E-02 -0.51145253E-02 -0.11955391E-02
  0.62205232E-02 -0.36703724E-02  0.15257359E-01
 -0.14432741E-02  0.30590571E-02  0.18589703E-02
  0.36425313E-02  0.10407088E-01 -0.93743018E-02
  0.18335585E-03  0.97291039E-03 -0.35194107E-02
 -0.29716392E-02  0.25636099E-02 -0.19824648E-03
  0.46347950E-02  0.75821266E-02 -0.23371604E-02
  0.55377883E-02  0.34962754E-02  0.84809085E-02
  0.39985310E-02 -0.51979211E-02  0.47166366E-03
  0.11620648E-01  0.40497560E-02 -0.12376991E-01
 -0.99020283E-02  0.30726915E-02 -0.56119552E-02
 -0.37647840E-02 -0.97164720E-02 -0.94945385E-02
 -0.72529972E-02 -0.46270173E-02 -0.11531055E-01
 -0.28599587E-03 -0.30067166E-02 -0.31346394E-02
  0.79567587E-03 -0.36015272E-03  0.10572703E-02
 -0.20639584E-02  0.70256992E-02  0.59149581E-02
 -0.22292110E-02 -0.46217165E-03 -0.70188703E-02
  0.65509174E-02  0.68112780E-03 -0.96307767E-02
  0.13411855E-01 -0.66537269E-02 -0.59242780E-02
  0.68727062E-02  0.50072487E-02 -0.55186334E-02
 -0.94925843E-02 -0.76266315E-03  0.10649422E-02
 -0.65469728E-02 -0.10288259E-02 -0.96948925E-02
  0.71778342E-02  0.14299068E-01 -0.13983129E-01
 -0.13028373E-01  0.12616294E-01  0.30529217E-02
 -0.85517424E-02 -0.26412041E-02 -0.24186954E-02
 -0.73522657E-02 -0.20670677E-02 -0.32797761E-02
  0.73643438E-02  0.65069021E-02 -0.10551179E-01
  0.69412135E-02 -0.20066389E-02 -0.11692008E-02
 -0.36470982E-02  0.77356802E-02  0.16055293E-01
  0.47453982E-02 -0.67131975E-02  0.55818620E-02
 -0.72452010E-02 -0.30615814E-02 -0.14787936E-02
 -0.22896799E-02  0.10822569E-01  0.27934659E-02
  0.29071296E-02 -0.13692284E-01 -0.25580104E-02
 -0.21759990E-02  0.11175232E-01  0.10348167E-01
 -0.12326798E-01 -0.16544521E-02 -0.60050415E-02
  0.15029097E-01 -0.72003250E-02 -0.13921728E-01
 -0.10068169E-01  0.46567343E-02 -0.21384267E-01
 -0.76899370E-02 -0.45108618E-02  0.28607107E-02
 -0.29117571E-03 -0.16606524E-01 -0.49459884E-02
  0.88496380E-04 -0.38236548E-02 -0.48227068E-02
  0.36383709E-02 -0.79360325E-02 -0.34090675E-02
 -0.12703902E-01 -0.67293315E-02 -0.39484120E-02
 -0.14464593E-01 -0.37711858E-01  0.28692358E-02
  0.79866298E-02  0.93833902E-02 -0.70774004E-02
  0.63308209E-02  0.60363335E-02  0.47233612E-02
 -0.26912123E-02 -0.80338476E-02  0.31326209E-02
  0.15718769E-01  0.68056953E-02  0.23818700E-01
  0.68382808E-03 -0.38215215E-02 -0.71411511E-02
  0.11585841E-01 -0.85386710E-02  0.11934713E-02
 -0.14351573E-01  0.23099139E-01 -0.46992189E-02
  0.40994234E-03  0.85244538E-02 -0.67886830E-02
  0.67628794E-03 -0.89549561E-02  0.17406553E-01
  0.12979770E-01 -0.43409095E-02  0.25408942E-01
  0.77018320E-02 -0.11019839E-01  0.21095675E-01
  0.77052160E-02  0.14990319E-01  0.96222758E-02
  0.85913491E-03  0.86600696E-03 -0.31742720E-02
  0.54214962E-02  0.22530127E-01 -0.18608430E-02
  0.96366159E-02 -0.14534780E-02  0.91776544E-02
 -0.14472650E-02 -0.12452333E-01  0.11067662E-01
  0.21403544E-02  0.79944028E-03  0.91257778E-02
  0.24798687E-02  0.84287533E-02  0.34720259E-01
 -0.89628835E-02 -0.18071557E-01 -0.16650127E-01
  0.37360562E-02 -0.97829263E-02 -0.23528957E-01
 -0.21512039E-02  0.10205177E-01 -0.21950979E-02
 -0.11369020E-01  0.70418643E-02 -0.11066803E-01
 -0.16695033E-01  0.10718045E-01 -0.45505627E-02
  0.76523938E-02  0.32228310E-02  0.13196637E-01
  0.11184735E-01 -0.60726191E-02 -0.78091306E-02
 -0.26328766E-03  0.16299562E-01 -0.94909512E-02
  0.75028251E-02 -0.69971691E-04  0.53148748E-03
  0.28016813E-02  0.13474263E-01  0.64251875E-02
  0.60961399E-02 -0.10377109E-01 -0.75049866E-03
 -0.13967415E-01 -0.74817241E-02  0.13379838E-01
  0.12473963E-02 -0.22103408E-02 -0.78360893E-03
  0.13353478E-02  0.20633720E-02  0.34741346E-02
 -0.35215615E-02 -0.23628347E-02  0.16308114E-02
 -0.11806735E-02 -0.18349465E-02  0.10243186E-02
 -0.17442157E-02  0.58146362E-03  0.30820673E-02
  0.31909622E-02 -0.17558290E-03 -0.21509585E-02
 -0.82247069E-03  0.10752426E-02 -0.33037721E-02
  0.98279576E-03 -0.11779445E-02 -0.22204081E-02
 -0.11688528E-02 -0.75463735E-03  0.14772780E-03
  0.13033112E-02  0.56718887E-03 -0.10062751E-02
 
           1
   1.00000000000000     
 -0.74102779E-01  0.24757006E-02  0.22377330E-02 -0.76459496E-01
  0.71484902E+00  0.17311300E-03  0.97366602E+00
  0.33108029E+00  0.40055764E+00  0.18654114E+00
  0.35974796E+00  0.84033512E+00  0.60196937E+00
  0.22502935E-01  0.64191335E+00  0.30682853E+00
  0.86941943E+00  0.55651365E+00  0.54502885E+00
  0.93947278E+00  0.93816460E+00  0.20021694E+00
  0.27019490E+00  0.17465737E+00  0.14253673E+00
  0.77611390E+00  0.53564826E+00  0.72783281E+00
  0.74448972E+00  0.23793365E-01  0.19134286E+00
  0.44209543E+00  0.20886859E+00  0.63500160E+00
  0.23617936E+00  0.22766315E-01  0.93815831E+00
  0.56848531E+00  0.70722436E-01  0.62101755E+00
  0.49766779E+00  0.63131538E+00  0.13699739E-01
  0.75923493E+00  0.42779101E+00  0.43709951E+00
  0.21394341E-01  0.45498040E+00  0.47046134E+00
  0.30619112E+00  0.68062470E+00  0.41958652E+00
  0.19958584E+00  0.44447102E+00  0.66032884E+00
  0.30299799E-01  0.85987267E+00  0.36225701E+00
  0.55108202E+00  0.26315894E+00  0.50477160E-01
  0.44650948E+00  0.58549136E+00  0.33912047E+00
  0.41541235E+00  0.61682718E+00  0.71132488E+00
  0.69186315E+00  0.66473734E+00  0.50330235E+00
  0.81092961E+00  0.37946774E+00  0.84937548E+00
  0.69473594E+00  0.84971974E+00  0.79550693E+00
  0.45664392E-01  0.66059172E+00  0.50430370E+00
  0.65407890E+00  0.31431483E+00  0.64313183E+00
  0.15191426E+00  0.10167049E+00  0.79222832E+00
  0.51775839E-01  0.21252346E-01  0.48970783E-01
  0.65865583E+00  0.28507778E+00  0.23457552E+00
  0.20642764E+00  0.28794991E+00  0.12080247E-01
  0.11669172E-01  0.36124952E+00  0.76198848E-01
  0.33504064E+00  0.16054030E+00  0.80495707E+00
  0.91296146E+00  0.15078291E+00  0.21531952E+00
  0.58207217E-01  0.55080617E+00  0.11774242E+00
  0.44842279E+00  0.58736485E-01  0.98775769E+00
  0.14207861E+00  0.97551378E+00  0.24331590E+00
  0.38780334E+00  0.49716978E+00  0.52200312E+00
  0.12945898E+00  0.39673478E+00  0.21175746E+00
  0.38387043E+00  0.27102783E-01  0.53587370E+00
  0.77328607E+00  0.65410899E-01  0.69862421E+00
  0.29123588E+00  0.62823547E+00  0.17923734E+00
  0.73298930E+00  0.20072882E+00  0.68451349E-01
  0.50122684E+00  0.69708666E+00  0.50150626E+00
  0.59319714E+00  0.42455096E+00  0.34564619E+00
  0.57618096E+00  0.30416903E-01  0.39504187E+00
  0.91613781E+00  0.51865589E+00  0.92368645E+00
  0.84773132E+00  0.88999737E+00  0.56270824E+00
  0.59136891E-01  0.82650598E+00  0.88505311E+00
  0.84940636E+00  0.64569274E+00  0.87920075E-01
  0.31594240E+00  0.76109169E+00  0.85978990E+00
  0.85659385E+00  0.74869485E+00  0.39599895E+00
  0.31171181E+00  0.13011641E+00  0.35343683E+00
  0.49189396E+00  0.87149251E+00  0.87521445E-01
  0.91511038E+00  0.44899839E+00  0.22339918E+00
  0.99347963E+00  0.73991362E-02  0.70279622E+00
  0.56121577E+00  0.42151905E+00  0.85103483E+00
  0.39039922E+00  0.32666886E+00  0.88987247E+00
  0.27652979E+00  0.91289083E+00  0.43755838E+00
  0.80145480E+00  0.12948447E+00  0.48072213E+00
  0.94525490E+00  0.25986214E+00  0.38353142E+00
  0.40778350E+00  0.22699254E-03  0.25948912E+00
  0.99719400E+00  0.76826368E+00  0.65224826E+00
  0.92414008E+00  0.18350002E+00  0.77099771E+00
  0.72835555E+00  0.62468109E+00  0.25641051E+00
  0.28852279E+00  0.46702433E+00  0.97937134E+00
  0.84587477E-01  0.77793369E+00  0.92757153E-01
  0.54268645E+00  0.48111929E+00  0.65127947E+00
  0.38162604E+00  0.42538562E+00  0.70328676E+00
  0.38791842E-02  0.63872048E-01  0.35833433E+00
  0.56755590E+00  0.48772576E+00  0.12954466E+00
  0.84550658E+00  0.72529584E+00  0.81674624E+00
  0.81770092E-01  0.36974653E+00  0.81648142E+00
  0.78962477E-01  0.21684163E+00  0.61531993E+00
  0.23634818E+00  0.29253183E+00  0.48983857E+00
  0.33530454E+00  0.97139010E+00  0.77606484E+00
  0.88011383E+00  0.83483444E+00  0.96328120E-02
  0.86405225E+00  0.33032702E+00  0.61570127E+00
  0.56212863E+00  0.10200112E+00  0.16994804E+00
  0.98729128E-01  0.19722783E+00  0.25773106E+00
  0.68715956E+00  0.54758395E+00  0.91927912E+00
  0.26306358E-01  0.55848289E+00  0.65201770E+00
  0.51878173E+00  0.78452423E+00  0.82211488E+00
  0.19215763E+00  0.96611704E+00  0.61928043E+00
  0.66090061E+00  0.18447475E+00  0.83215963E+00
  0.46703745E+00  0.82134731E+00  0.34577361E+00
  0.91828148E+00  0.18287823E+00  0.99731629E+00
  0.86504527E+00  0.12549134E-01  0.84238052E+00
  0.25536101E+00  0.48182786E+00  0.39044085E+00
  0.56174963E+00  0.72529400E+00  0.20378573E+00
  0.62161418E+00  0.69051945E+00  0.68637614E+00
  0.53934910E+00  0.97465953E+00  0.83693694E+00
  0.70475159E+00  0.82048288E+00  0.17488152E+00
  0.62589799E+00  0.84711533E+00  0.58215747E+00
  0.18839390E+00  0.67853436E+00  0.64032659E+00
  0.63612003E+00  0.76807393E+00  0.96718665E+00
  0.64625089E+00  0.23308257E+00  0.42949917E+00
  0.70270108E+00  0.90380523E+00  0.38514629E+00
  0.45802843E+00  0.28024962E+00  0.32921035E+00
  0.29172398E+00  0.88087526E+00  0.71295532E-01
  0.11173812E+00  0.56943146E+00  0.92708032E+00
  0.90597785E+00  0.66537931E-01  0.74602396E+00
  0.35430169E+00  0.56649536E+00  0.40708071E+00
  0.29003317E+00  0.34524842E+00  0.95966488E+00
  0.58221664E+00  0.30425779E+00  0.35405313E+00
  0.79505936E+00  0.50068464E+00  0.84551059E+00
  0.43174861E+00  0.52554622E+00  0.64930303E+00
  0.29506974E+00  0.94706227E+00  0.54416582E+00
  0.25848465E+00  0.67776725E-01  0.82716752E+00
  0.36405108E-01  0.94910187E+00  0.29326303E+00
  0.60835157E+00  0.78389647E+00  0.74888843E+00
  0.77606562E-01  0.66659917E+00  0.61636549E+00
  0.98583898E+00  0.17482591E+00  0.31049151E+00
  0.17964726E-01  0.43240775E+00  0.16351072E+00
  0.59668800E+00  0.72183475E+00  0.55977075E+00
  0.63248712E+00  0.21777363E+00  0.13822078E+00
  0.74341853E+00  0.24255261E+00  0.92782203E+00
  0.29756582E+00  0.74547716E+00  0.69982022E+00
  0.28752743E+00  0.40441828E+00  0.56915272E+00
  0.44455166E+00  0.46862251E-01  0.41253441E+00
  0.16389564E+00  0.70275258E+00  0.21217385E+00
  0.82615757E+00  0.83920271E+00  0.25419368E+00
  0.25284742E+00  0.52302850E+00  0.10673290E+00
  0.96095182E-01  0.75085937E-01  0.63127899E+00
  0.10594358E+00  0.55070002E+00  0.42823654E+00
  0.49179564E-01  0.17547705E+00  0.87053292E+00
  0.43096909E+00  0.62590319E+00  0.17577474E+00
  0.27369498E+00  0.20546857E-01  0.27386178E+00
  0.94921510E+00  0.85320222E+00  0.74709384E+00
  0.76353758E+00  0.44238119E+00  0.59847861E+00
  0.67233391E+00  0.28795939E-01  0.81523443E+00
  0.13096657E+00  0.12477936E+00  0.11628761E+00
  0.76544900E+00  0.80767787E+00  0.91427178E+00
  0.77329191E+00  0.26039480E+00  0.70410248E+00
  0.77711481E+00  0.29301495E+00  0.41498789E+00
  0.22192990E+00  0.54330022E+00  0.85110991E+00
  0.97997564E+00  0.38015673E+00  0.94085172E+00
  0.49048829E+00  0.36855285E+00  0.15734052E+00
  0.14487057E+00  0.91668653E+00  0.27446338E-01
  0.45164715E+00  0.16825244E+00  0.66151780E-01
  0.54881717E+00  0.62915258E+00  0.87421619E+00
  0.34987205E+00  0.80700183E+00  0.45438488E+00
  0.81120426E+00  0.65501717E+00  0.61474332E+00
  0.43042256E+00  0.52650245E-01  0.67602842E+00
  0.97949047E+00  0.79955690E+00  0.49571291E+00
  0.56380551E+00  0.56167393E+00  0.40319831E+00
  0.41059641E+00  0.90030899E+00  0.93901170E+00
  0.86220025E+00  0.32161124E-01  0.63456417E-01
  0.98663636E+00  0.68318929E+00  0.97034589E+00
  0.65606246E+00  0.63749142E+00  0.10059059E+00
  0.38183245E-01  0.37880917E+00  0.64782675E+00
  0.51855287E+00  0.30260087E+00  0.74464633E+00
  0.25462340E+00  0.28736410E+00  0.31027458E+00
  0.71471811E+00  0.99846207E+00  0.53838027E+00
  0.87216877E+00  0.57260411E+00  0.36821292E+00
  0.57194811E+00  0.92588781E+00  0.24073673E+00
  0.48317838E-04  0.83475365E-03 -0.60245683E-03
 -0.16388483E-03  0.14448729E-03 -0.13618673E-03
  0.58571952E-04  0.97776235E-03 -0.21811776E-03
  0.37806523E-03 -0.56829294E-03  0.79057112E-03
 -0.36095285E-03  0.77513888E-03  0.74856750E-03
  0.50379130E-04  0.69537857E-03  0.20315871E-03
  0.32450603E-03 -0.34434433E-03 -0.34910732E-03
  0.15565548E-03  0.62268194E-03  0.35648986E-04
  0.16446871E-03 -0.73967976E-03  0.10799434E-04
  0.49340652E-03  0.11012675E-02 -0.20081500E-03
 -0.71133657E-03  0.71458593E-03  0.87064099E-03
 -0.74466161E-03  0.37780615E-04 -0.16637265E-03
 -0.62431127E-03 -0.11481025E-03 -0.23225904E-03
  0.10943300E-03 -0.26534014E-03  0.33921996E-04
 -0.15354684E-03  0.67052769E-03  0.82509419E-03
 -0.21436477E-03  0.28894800E-03  0.21862962E-03
  0.72401645E-03 -0.87082458E-03  0.26701254E-03
  0.13487781E-03 -0.16600064E-03  0.66882930E-03
  0.17582521E-03  0.57506791E-03  0.28757082E-03
 -0.97643552E-04 -0.13662079E-03 -0.27696345E-04
 -0.72894971E-04 -0.60741588E-03 -0.81713612E-03
 -0.19747455E-03 -0.59403053E-03 -0.49874620E-03
  0.55026416E-04  0.21364072E-03 -0.14372798E-03
 -0.32700172E-03 -0.11553460E-04  0.21936718E-03
 -0.29274568E-03  0.22859854E-03  0.12572941E-02
 -0.10405826E-02 -0.16298765E-03 -0.51428857E-04
  0.28863786E-03  0.12138042E-03  0.34811584E-03
  0.16262205E-03 -0.33590888E-03  0.55529357E-03
 -0.25361984E-03  0.54408771E-03 -0.99869994E-04
 -0.42151631E-03  0.22567988E-03 -0.51190433E-03
 -0.34087575E-03  0.17025599E-03 -0.22646907E-03
 -0.34778244E-03 -0.10594937E-03  0.56099584E-03
  0.10767921E-03  0.42191424E-03  0.59524590E-03
  0.43593057E-03  0.51420887E-03 -0.31945400E-03
  0.12230754E-02 -0.64410851E-03  0.34937381E-03
  0.64517869E-03  0.22683883E-03 -0.96104083E-03
  0.41416647E-03  0.30638329E-03 -0.34077365E-03
  0.73737471E-03 -0.15526468E-03  0.14609898E-04
  0.33926630E-03  0.41663460E-03 -0.15314136E-03
  0.39003968E-03 -0.15776818E-03  0.79030411E-04
  0.26074487E-03  0.24920139E-03 -0.27134039E-03
 -0.65007408E-04 -0.19524007E-03  0.33266070E-03
  0.53751962E-04  0.91689412E-04  0.77984984E-03
  0.59958686E-03 -0.10566751E-02  0.59500163E-04
  0.35873393E-03 -0.59014943E-03  0.30268559E-03
  0.20779562E-03 -0.30037573E-03  0.38744434E-03
 -0.11561355E-02 -0.52298948E-04  0.34956931E-03
  0.11711674E-02 -0.43637284E-03 -0.22259689E-03
 -0.87729166E-03  0.55610413E-03  0.35546694E-03
  0.16044198E-03 -0.26793170E-03  0.23483037E-03
 -0.94135310E-04  0.82552965E-03 -0.35463230E-03
  0.87530130E-03  0.18652286E-03  0.66956487E-04
 -0.25925274E-03 -0.21370654E-03 -0.26070665E-03
 -0.32574199E-03  0.46148980E-03 -0.22378005E-03
  0.78947500E-03 -0.57528911E-03  0.61487262E-03
  0.44950311E-03  0.15214268E-03 -0.56995806E-03
 -0.39945319E-03 -0.35721054E-03  0.14313597E-04
  0.80402794E-03 -0.18507566E-03  0.84602728E-03
 -0.60291112E-03 -0.54012501E-04  0.44038551E-03
  0.15863326E-03 -0.15009309E-03 -0.38074585E-03
 -0.44353090E-03  0.48615335E-03  0.14464272E-03
  0.75462355E-04  0.17801696E-03 -0.23336170E-03
 -0.13802302E-02  0.24760228E-03 -0.17321651E-03
  0.39726711E-03 -0.32276067E-03 -0.17835399E-03
 -0.65373387E-03  0.23090243E-03 -0.27393406E-03
  0.77633627E-04  0.57353706E-03 -0.41982741E-04
 -0.10496460E-02 -0.76370824E-04  0.60660819E-03
  0.69329927E-03  0.49579969E-03  0.65255744E-03
 -0.11913644E-02 -0.58854704E-03  0.45313282E-03
  0.36431709E-03 -0.27084326E-03 -0.85721914E-03
 -0.68678766E-03 -0.41120944E-03 -0.11219420E-03
  0.28197354E-03 -0.62417284E-03 -0.21976669E-03
 -0.22438604E-03 -0.40713784E-03 -0.92139603E-04
  0.48932068E-03 -0.29561541E-03  0.12097522E-02
 -0.10832966E-03  0.23457402E-03  0.13573307E-03
  0.29180507E-03  0.80934777E-03 -0.73433161E-03
  0.48950163E-05  0.65405232E-04 -0.28148314E-03
 -0.24132022E-03  0.17956232E-03 -0.11546030E-04
  0.34974992E-03  0.58402656E-03 -0.18978374E-03
  0.39914485E-03  0.26536232E-03  0.66444598E-03
  0.31031321E-03 -0.40350732E-03  0.60569767E-05
  0.92212214E-03  0.33764277E-03 -0.95785864E-03
 -0.79372667E-03  0.23503404E-03 -0.41476381E-03
 -0.28719839E-03 -0.77551558E-03 -0.73086488E-03
 -0.58608952E-03 -0.38930979E-03 -0.89299826E-03
 -0.30404521E-04 -0.23703858E-03 -0.22515760E-03
  0.50988942E-04 -0.14260863E-04  0.54382973E-04
 -0.16227449E-03  0.54804128E-03  0.47265857E-03
 -0.13047888E-03 -0.23927138E-04 -0.56681607E-03
  0.51261805E-03  0.73430900E-04 -0.73327130E-03
  0.10529177E-02 -0.52927645E-03 -0.45720071E-03
  0.50435845E-03  0.38804834E-03 -0.42530365E-03
 -0.73096652E-03 -0.41092932E-04  0.76049172E-04
 -0.51723273E-03 -0.77291469E-04 -0.76941762E-03
  0.54013335E-03  0.11424983E-02 -0.11219374E-02
 -0.99876372E-03  0.96434619E-03  0.25561160E-03
 -0.68562159E-03 -0.19045825E-03 -0.16980757E-03
 -0.58194000E-03 -0.16419874E-03 -0.25305851E-03
  0.58222380E-03  0.51359572E-03 -0.82077638E-03
  0.54239139E-03 -0.16880262E-03 -0.78417742E-04