POSCAR file written by OVITO Basic 3.10.
   1.00000000000000     
    11.8849999999999998    0.0000000000000000    0.0000000000000000
     0.0000000000000000   11.8849999999999998    0.0000000000000000
     0.0000000000000000    0.0000000000000000   11.8849999999999998
   F    Be   Li   Th
    80    15    30     5
Direct
  0.3385463297120927  0.6072112958348017  0.1326041648337348
  0.5709544384281359  0.1147675350254020  0.6366754729037665
  0.3139305078860307  0.9059116887842925  0.1677652577384696
  0.9682300969568475  0.3768260069997510  0.9138410951095259
  0.5770715998641405  0.4752510049240525  0.9978695821421122
  0.4345081603505093  0.2388877234838903  0.5064027549821236
  0.3579928687059082  0.3800913249782482  0.9211433131906234
  0.8786853701187467  0.7525987968029070  0.8869367109183397
  0.5163737026730195  0.9514515588697777  0.4536636499924827
  0.1324003340672212  0.5198980724431813  0.8499042075087487
  0.9790151241481397  0.9962242612810024  0.0526894383151327
  0.2306656069086834  0.6572644840718703  0.6320723180607449
  0.7644233426286346  0.1845822849908831  0.5064676503546052
  0.3045738540114085  0.4562186263739942  0.6920003828303908
  0.5748947959845854  0.7239040150030794  0.6813483748376481
  0.9825060654291099  0.2641257817824961  0.5144663208459977
  0.5487639282792710  0.5238448738235573  0.2637019428848609
  0.7049541017999268  0.7019370353478397  0.1689282720750114
  0.1628332849317625  0.0578910457537082  0.1413280986855607
  0.7702229044077442  0.9008820491440135  0.9842072427783704
  0.3810649501582569  0.4715832125836560  0.3582782699480531
  0.0866438766031098  0.5118553933700976  0.4140103491293154
  0.3711632355982974  0.0537281932605854  0.6270901610894823
  0.8210393350408478  0.2777456293725353  0.7707616243642192
  0.0075471794702032  0.2101012468783206  0.1028392703113299
  0.2055004520978611  0.3110171931817105  0.8103325167269946
  0.3472964735513692  0.8718841569931053  0.7058716920639860
  0.9078287388173568  0.0679859313676570  0.4237773543064008
  0.8533608652406077  0.2797071818957761  0.3494402745889058
  0.0076438736184346  0.4034816928831883  0.1979321551501113
  0.4082738322304313  0.2400228566716809  0.7157838991867741
  0.2044624137055076  0.5062886668870504  0.2476230055283060
  0.8510353388260442  0.4832016946384740  0.5306545423280795
  0.1677623995133555  0.9965212938828010  0.6236047747373983
  0.5411250171099270  0.4353464291703868  0.6023761830035983
  0.4902513067975939  0.9850010400781778  0.0659434427627866
  0.3349437678368662  0.8026340884963266  0.9340914595434365
  0.8927791298444389  0.7308799859624439  0.3608331519124118
  0.4433856011538294  0.6245207020406572  0.8616262638993719
  0.7714108951443299  0.6647607476785192  0.6472355651387913
  0.3954683142237916  0.1113872876670427  0.2966783132019344
  0.6617591121807410  0.5481455999236108  0.8410201079708138
  0.0971581576854011  0.4348465741847258  0.6597217606678372
  0.9027176846935202  0.7264175808682719  0.1327083168464179
  0.1975936804063571  0.3207816933970961  0.1218534670497996
  0.6252143056289748  0.3002743417677269  0.8077122141656721
  0.0656158621416728  0.6630220463483830  0.2562644325466488
  0.8199763933546695  0.5396019408996994  0.2431316820321463
  0.7597983712528477  0.3065150934182227  0.0522951308849521
  0.5564380350012786  0.7065707808138714  0.9988322570988636
  0.1732867109099506  0.1599659829087599  0.9650842771122680
  0.7966815928153570  0.5619868768465104  0.0294309850403740
  0.5146166567911311  0.1895490978458956  0.0508132850110099
  0.8702263968193710  0.9369604423731424  0.7828000360470259
  0.6533859278798347  0.5902904798730529  0.4695115038275021
  0.4556206908869523  0.3425094989438830  0.1959227625613836
  0.6823542688552447  0.8045833680751773  0.8076285035838545
  0.1072695699508493  0.7298050443312750  0.8449696497648501
  0.1547985595104369  0.2927021230902756  0.3171031541186169
  0.8342238445941759  0.1025785296210878  0.9561735315883586
  0.9615859357315170  0.6468770223495148  0.5764682185063869
  0.6185015596573353  0.1008805237589012  0.3118622544847163
  0.1183916568950639  0.5590383926405222  0.0608125415400757
  0.7146256263448028  0.8778728407241114  0.5902097085421998
  0.6568409854458293  0.8844504753210382  0.2459137321832089
  0.4182898871369988  0.6953132323315424  0.5148014620189992
  0.3845408845953609  0.0355088108231958  0.9166574390282091
  0.1747731768929794  0.9519202208497427  0.8530690243231146
  0.5862383217571608  0.0710371703483011  0.8822430212759613
  0.0818629792104664  0.8315275426680824  0.5405963785871867
  0.2935119543578277  0.9100941362726033  0.3780644578566146
  0.8613183996462016  0.5096682915438957  0.7451201743920653
  0.2038726616902713  0.2203840719374851  0.6111571215169938
  0.5983113440748660  0.3426576054866781  0.3551716903139858
  0.4937142040412911  0.7445108733069141  0.2498240291772530
  0.0386349678772743  0.1450208888798605  0.7867280784605120
  0.1527512820729920  0.7859004608957021  0.0628084188338009
  0.8014687342179770  0.0372293133171413  0.1662631214609932
  0.2183523091093347  0.6842784093415001  0.3906051816901183
  0.0164118987498176  0.8825915677237209  0.2427804357810951
  0.6786559499934552  0.7728492045492397  0.6658752444412365
  0.5479311623385322  0.5857059774333303  0.9206041571693591
  0.8083373488455722  0.6193904765503307  0.1420012619971891
  0.9628701973584169  0.7562867148692721  0.2583976741084166
  0.2085624921073861  0.4528637332629843  0.7581248985828359
  0.1307875602922009  0.5804191460931403  0.3288399271287403
  0.8507727850208247  0.0201291830342036  0.0450876079119452
  0.8654876044995242  0.5609370496797643  0.6280468297490807
  0.1399604132823305  0.3839661586340974  0.2152205539554390
  0.8064357025441018  0.8431855328629860  0.8655373069783535
  0.4920020245497559  0.4089909103972988  0.2960236377031210
  0.4441267685874103  0.1605417912430638  0.6084156971397223
  0.0786756511167254  0.1197453394100112  0.0604008276298699
  0.8822518860064190  0.1980566288247205  0.4564655363032860
  0.5066931883432836  0.0788653096167351  0.9779349199452601
  0.5690908826572494  0.2548255061737585  0.1984785379113625
  0.1185313024175471  0.2425267227307698  0.4825320163473685
  0.2498028794219732  0.1816984258103808  0.1957851033349955
  0.3920934130039091  0.4026194376492349  0.5529493345566947
  0.2868108983889728  0.9326629018437650  0.9924766100133123
  0.8969844513403249  0.1000104677510945  0.7982242731436568
  0.7989222061399978  0.0167017107470826  0.3092675045326889
  0.5385417022810212  0.5938428571964024  0.6040963249412171
  0.8737588199992257  0.2628978256002539  0.1851812299884676
  0.1572411860497769  0.8775841719443384  0.1790191172248127
  0.9689099863797128  0.4406210366417788  0.3686401259186395
  0.1026380938985162  0.2894692950446670  0.9310388674015567
  0.6176862812069012  0.1853710204347795  0.4330603602367649
  0.6573883174198506  0.4111132198494334  0.4948758936869728
  0.4001858934970473  0.3239778791228788  0.0461163497456094
  0.0127201393292125  0.8781877552604384  0.8164105345835290
  0.4940027586195117  0.8116935686481832  0.8828967633657930
  0.9577949448030972  0.7781407039340913  0.4975158088709376
  0.9613473752999457  0.3122267852771163  0.6642964772779203
  0.7648778963699852  0.6214977958393190  0.3687724034523919
  0.6237470644127207  0.9864171635919088  0.5563166534891396
  0.5329935063861752  0.6618480549214809  0.4345362129362315
  0.9990398668608763  0.4421795237025004  0.0553418317398459
  0.9899839416974610  0.6460539428276797  0.8374649418052263
  0.7199786168579636  0.8532388705120684  0.1250233862207121
  0.3364979067564030  0.6033429866400729  0.3124803412539019
  0.4224170201954705  0.4345656469686013  0.7952563847460502
  0.0982230731975599  0.5745128223069869  0.5775499946857605
  0.6238271758507818  0.1451724977443690  0.7733578917337171
  0.5367700464994086  0.6360428036883155  0.1495922125584117
  0.7538058235057349  0.3991015494998789  0.8922517075186408
  0.2686306173875935  0.8282157483221225  0.5510197161476741
  0.4707887170735585  0.9432733424410933  0.2727951176470622
  0.2357156284774831  0.1271239302664310  0.7555502582961197
  0.2437627343410904  0.6484317450758494  0.9748948119544910
 
  0.23671102E-02  0.97363003E-02  0.13627743E-01
  0.11316227E-01 -0.28146671E-02  0.44727377E-02
  0.52845083E-02 -0.58499904E-02  0.35145237E-02
 -0.20099012E-02 -0.31992010E-02 -0.64195702E-02
  0.48363050E-02  0.46175134E-02  0.91341546E-02
 -0.63566567E-02  0.28854940E-02  0.19236292E-02
 -0.26964732E-02 -0.90908028E-03  0.57833947E-05
  0.27963277E-02  0.20869281E-02 -0.10174862E-01
  0.10763242E-02 -0.57120630E-02  0.70235131E-02
 -0.33998184E-02 -0.12522468E-02  0.57288753E-02
 -0.50083298E-03 -0.48316275E-02  0.27969997E-02
  0.12181532E-02 -0.59911284E-02  0.57208215E-02
 -0.63509046E-03  0.83179054E-02  0.87591110E-03
 -0.59288360E-02 -0.19781869E-03  0.77161937E-03
  0.25155664E-02  0.70679395E-02 -0.45276134E-02
 -0.14625315E-01 -0.77804139E-02 -0.13165991E-01
  0.53369302E-02  0.98339700E-03 -0.24471224E-02
 -0.79652252E-03  0.28455339E-02 -0.30254615E-02
 -0.10258614E-01 -0.34918392E-03  0.89194697E-02
 -0.17891030E-02  0.50206910E-02 -0.65609728E-02
  0.31198580E-03  0.42105202E-02 -0.54070532E-02
  0.15203972E-01  0.10753506E-01  0.87786391E-02
  0.18409040E-02  0.10281707E-01  0.38549048E-02
  0.10372933E-02 -0.13018973E-01 -0.56315698E-03
  0.27009228E-02  0.44117045E-02 -0.18433241E-04
  0.34511479E-02 -0.31191389E-02  0.41072639E-02
  0.37061791E-02  0.39793766E-02  0.58628954E-02
  0.57895444E-02  0.10578789E-01 -0.10769190E-02
  0.11406566E-01 -0.27515683E-02  0.18683032E-02
 -0.99665661E-02 -0.28383923E-02  0.11569297E-03
  0.41402271E-02 -0.19671907E-02 -0.34504466E-02
  0.50523721E-02  0.45110103E-02  0.21823865E-02
  0.10649496E-01 -0.88963610E-02 -0.12321338E-02
  0.86406557E-03 -0.83803237E-02  0.58414212E-02
 -0.77187561E-02  0.35554514E-02 -0.15864525E-02
  0.40163086E-02  0.30865383E-02 -0.22777193E-02
  0.50400077E-02  0.58297743E-03 -0.15404174E-01
  0.70776983E-02  0.56609442E-02  0.13476212E-01
  0.26559420E-02 -0.35060016E-02 -0.59713207E-02
 -0.79523372E-02  0.68313346E-03 -0.35530702E-02
 -0.14264123E-01  0.11824177E-01  0.96197791E-02
 -0.61689116E-02 -0.12545371E-01  0.60383119E-02
 -0.34512585E-03 -0.58154103E-02 -0.11404839E-02
  0.15314681E-01 -0.44046911E-02  0.19042511E-02
 -0.22049633E-02 -0.12391203E-02 -0.43864933E-02
 -0.16886359E-03  0.12748346E-01 -0.89178037E-02
  0.21525857E-02  0.10064452E-01  0.37536478E-02
 -0.60506051E-02  0.84679771E-03 -0.14600208E-01
  0.96122709E-03  0.49591690E-02 -0.25570427E-02
 -0.25771503E-02 -0.17821179E-02  0.77827095E-02
  0.18984779E-02  0.91458139E-02  0.49038120E-02
  0.10551946E-01 -0.14072580E-02 -0.18998119E-02
 -0.10642724E-01  0.40537271E-02 -0.23877731E-02
 -0.55877539E-02 -0.95937984E-03 -0.89737746E-02
 -0.38382298E-02 -0.31544646E-02 -0.22662163E-03
  0.96711889E-03  0.76352424E-02  0.57893711E-02
 -0.47450912E-02  0.20600964E-02  0.20000705E-03
  0.15423478E-01  0.49393517E-02  0.14101086E-02
  0.17127299E-02 -0.54771241E-02 -0.24902786E-03
 -0.15208036E-02  0.73015661E-02 -0.35232779E-03
  0.18129180E-02 -0.52610653E-02 -0.37056418E-02
 -0.60207320E-02  0.90262317E-03  0.33282415E-02
 -0.86121960E-03  0.91516354E-02 -0.72227829E-02
  0.11221690E-01 -0.97416608E-02 -0.68777345E-02
 -0.52399510E-02  0.29167191E-02 -0.48342879E-02
 -0.60212778E-03  0.91022935E-03  0.18113946E-03
 -0.17269116E-02 -0.52343681E-02  0.49529964E-02
 -0.43671671E-02 -0.62463679E-02  0.35311048E-02
  0.65704901E-02  0.94269916E-02  0.74103750E-02
 -0.43708144E-02  0.33716593E-02  0.30563362E-02
  0.56621151E-02 -0.73968920E-02 -0.66214511E-02
 -0.22031605E-02  0.81980967E-02 -0.60504618E-02
 -0.36000849E-02  0.92085287E-02 -0.14793608E-01
  0.74717669E-02  0.59016452E-02 -0.23763614E-02
 -0.31049805E-02 -0.93363687E-02 -0.65517791E-02
 -0.31856975E-02 -0.39628208E-02  0.15318501E-01
  0.29838047E-02  0.49979673E-02  0.83552297E-02
 -0.29541507E-02  0.65721595E-02  0.76893051E-03
  0.41956596E-02 -0.98300746E-02  0.33160731E-02
  0.42514810E-02  0.12767177E-03 -0.26764302E-02
  0.23881863E-02 -0.82758743E-02 -0.34586791E-02
 -0.12405344E-01 -0.14185275E-02 -0.10905912E-01
 -0.12344207E-01  0.93320430E-02  0.12070399E-01
  0.12824855E-01 -0.14702564E-01 -0.65855027E-02
 -0.38084592E-02 -0.26717096E-02 -0.22768678E-02
  0.22990502E-02 -0.25306100E-02  0.21435453E-01
 -0.13948482E-02  0.17211496E-01 -0.59818791E-03
  0.50670790E-02 -0.13160959E-02  0.49015164E-02
  0.40220310E-02  0.66493473E-02  0.18575704E-02
  0.23225217E-02  0.32069006E-03  0.14277349E-03
 -0.15637306E-01  0.34608098E-02  0.23305995E-01
  0.90465999E-02  0.78679793E-03  0.16665097E-01
 -0.78615078E-02  0.10368947E-01 -0.82830087E-03
 -0.26672368E-01 -0.29917780E-03  0.10309179E-01
 -0.99682179E-02 -0.76922845E-02 -0.19739416E-01
  0.18323837E-01  0.29768639E-02  0.38345314E-02
 -0.13236199E-03  0.10532003E-01  0.68929020E-02
  0.16231329E-02  0.68662509E-02 -0.16449327E-03
  0.97885801E-02 -0.88927024E-03 -0.17028186E-03
  0.37135446E-02 -0.20242512E-01 -0.11182857E-01
  0.53105856E-02 -0.84997716E-02  0.16322981E-01
 -0.90627005E-02  0.13395488E-01 -0.41860587E-02
  0.62501978E-03  0.43219612E-03 -0.14631057E-01
  0.54796702E-02  0.24548193E-02 -0.61446449E-02
  0.15714515E-02 -0.86616140E-02 -0.17488054E-01
 -0.20504043E-02 -0.15069147E-01 -0.87487831E-02
 -0.10597944E-01 -0.51260267E-02  0.22147381E-01
 -0.31213490E-01  0.33321556E-02 -0.58791127E-02
  0.13278281E-01  0.15813152E-01  0.62339338E-02
  0.14491620E-01  0.10333578E-01 -0.11443279E-01
  0.69809102E-02  0.29705884E-02  0.12962189E-03
  0.31462551E-02  0.81996269E-02 -0.71100727E-02
  0.15339925E-02  0.10072935E-01 -0.10074259E-01
  0.11117594E-01 -0.89757448E-02  0.20546833E-02
  0.80252087E-02  0.15399972E-01 -0.17211807E-01
 -0.50415031E-03  0.87746610E-02  0.13466895E-01
  0.13316379E-01 -0.18348671E-01  0.12517876E-01
 -0.81559954E-02  0.15205582E-01 -0.24797488E-01
 -0.15270388E-01  0.16921250E-01 -0.19298205E-01
 -0.84851268E-02 -0.11151479E-01 -0.12866554E-01
  0.20588705E-01 -0.94062260E-02 -0.16137695E-01
 -0.19084552E-02  0.16307936E-02  0.22228399E-01
 -0.39621707E-02 -0.55714559E-02  0.84245017E-03
  0.10724782E-02  0.11131301E-02  0.69602418E-02
  0.14082374E-01 -0.36211322E-02 -0.14389091E-01
  0.19560286E-03 -0.77082750E-03  0.90151389E-03
 -0.13767615E-02 -0.17063257E-02 -0.14566710E-02
  0.16437181E-02 -0.11193777E-02  0.28952422E-02
 -0.33506386E-02 -0.74901645E-03 -0.57479071E-03
 -0.57320666E-03 -0.23456558E-02 -0.15479027E-02
 
           1
   1.00000000000000     
  0.99198553E+00  0.37007241E-02  0.36425456E-02  0.98831389E+00
  0.33874550E+00  0.60803050E+00  0.13375080E+00
  0.57190658E+00  0.11453071E+00  0.63705181E+00
  0.31437514E+00  0.90541947E+00  0.16806097E+00
  0.96806098E+00  0.37655683E+00  0.91330095E+00
  0.57747852E+00  0.47563952E+00  0.99863813E+00
  0.43397331E+00  0.23913051E+00  0.50656461E+00
  0.35776599E+00  0.38001484E+00  0.92114380E+00
  0.87892065E+00  0.75277439E+00  0.88608060E+00
  0.51646426E+00  0.95097095E+00  0.45425461E+00
  0.13211427E+00  0.51979271E+00  0.85038623E+00
  0.97897298E+00  0.99581773E+00  0.52924777E-01
  0.23076810E+00  0.65676039E+00  0.63255367E+00
  0.76436991E+00  0.18528215E+00  0.50654135E+00
  0.30407500E+00  0.45620198E+00  0.69206531E+00
  0.57510645E+00  0.72449871E+00  0.68096742E+00
  0.98127550E+00  0.26347114E+00  0.51335854E+00
  0.54921298E+00  0.52392762E+00  0.26349604E+00
  0.70488708E+00  0.70217646E+00  0.16867371E+00
  0.16197013E+00  0.57861666E-01  0.14207858E+00
  0.77007237E+00  0.90130449E+00  0.98365520E+00
  0.38109120E+00  0.47193748E+00  0.35782332E+00
  0.87923134E-01  0.51276019E+00  0.41474898E+00
  0.37131813E+00  0.54593293E-01  0.62741451E+00
  0.82112661E+00  0.27665022E+00  0.77071424E+00
  0.77744342E-02  0.21047245E+00  0.10283772E+00
  0.20579083E+00  0.31075475E+00  0.81067810E+00
  0.34760831E+00  0.87221898E+00  0.70636499E+00
  0.90831587E+00  0.68876027E-01  0.42368674E+00
  0.85432061E+00  0.27947567E+00  0.34959747E+00
  0.68052900E-02  0.40324287E+00  0.19794189E+00
  0.40862219E+00  0.23985734E+00  0.71549358E+00
  0.20488752E+00  0.50666822E+00  0.24780663E+00
  0.85193138E+00  0.48245316E+00  0.53055087E+00
  0.16783510E+00  0.99581618E+00  0.62409627E+00
  0.54047556E+00  0.43564558E+00  0.60224270E+00
  0.49058924E+00  0.98526074E+00  0.65751796E-01
  0.33536783E+00  0.80268314E+00  0.93279536E+00
  0.89337465E+00  0.73135630E+00  0.36196704E+00
  0.44360907E+00  0.62422571E+00  0.86112384E+00
  0.77074179E+00  0.66481823E+00  0.64693661E+00
  0.39426814E+00  0.11238217E+00  0.29748772E+00
  0.66124006E+00  0.54709004E+00  0.84152817E+00
  0.97129119E-01  0.43435727E+00  0.65962580E+00
  0.90400626E+00  0.72604697E+00  0.13286854E+00
  0.19740816E+00  0.32067743E+00  0.12148439E+00
  0.62520010E+00  0.30134698E+00  0.80696187E+00
  0.65796980E-01  0.66386887E+00  0.25658026E+00
  0.81946730E+00  0.53967319E+00  0.24190323E+00
  0.75987925E+00  0.30693236E+00  0.52079982E-01
  0.55622119E+00  0.70642083E+00  0.99948709E+00
  0.17344645E+00  0.16073551E+00  0.96549688E+00
  0.79756943E+00  0.56186847E+00  0.29271135E-01
  0.51372118E+00  0.18989018E+00  0.50612379E-01
  0.86975625E+00  0.93687972E+00  0.78204499E+00
  0.65306298E+00  0.59002506E+00  0.46949244E+00
  0.45570206E+00  0.34315193E+00  0.19640988E+00
  0.68195502E+00  0.80475670E+00  0.80764533E+00
  0.10856730E+00  0.73022064E+00  0.84508830E+00
  0.15494267E+00  0.29224128E+00  0.31708220E+00
  0.83409588E+00  0.10319288E+00  0.95614389E+00
  0.96173847E+00  0.64643436E+00  0.57615643E+00
  0.61799498E+00  0.10095647E+00  0.31214229E+00
  0.11831919E+00  0.55980841E+00  0.60204819E-01
  0.71556982E+00  0.87705318E+00  0.58963102E+00
  0.65640010E+00  0.88469589E+00  0.24550698E+00
  0.41823922E+00  0.69538982E+00  0.51481670E+00
  0.38439558E+00  0.35068393E-01  0.91707418E+00
  0.17440572E+00  0.95139465E+00  0.85336613E+00
  0.58679116E+00  0.71830354E-01  0.88286653E+00
  0.81495220E-01  0.83181123E+00  0.54085354E+00
  0.29398836E+00  0.90947176E+00  0.37750733E+00
  0.86113303E+00  0.51035808E+00  0.74461109E+00
  0.20356975E+00  0.22115887E+00  0.60991239E+00
  0.59894002E+00  0.34315417E+00  0.35497174E+00
  0.49345295E+00  0.74372531E+00  0.24927276E+00
  0.38366924E-01  0.14468746E+00  0.78801697E+00
  0.15300234E+00  0.78632099E+00  0.63511425E-01
  0.80122017E+00  0.37782293E-01  0.16632782E+00
  0.21870533E+00  0.68345131E+00  0.39088419E+00
  0.16769617E-01  0.88260231E+00  0.24255524E+00
  0.67885689E+00  0.77215288E+00  0.66558423E+00
  0.54688738E+00  0.58558662E+00  0.91968654E+00
  0.80729871E+00  0.62017567E+00  0.14301686E+00
  0.96394928E+00  0.75504965E+00  0.25784357E+00
  0.20824205E+00  0.45263894E+00  0.75793332E+00
  0.13098100E+00  0.58020622E+00  0.33064350E+00
  0.85065542E+00  0.21577353E-01  0.45037277E-01
  0.86591395E+00  0.56082631E+00  0.62845924E+00
  0.14029883E+00  0.38452563E+00  0.21537685E+00
  0.80663112E+00  0.84321252E+00  0.86554932E+00
  0.49068631E+00  0.40928210E+00  0.29798460E+00
  0.44488795E+00  0.16060799E+00  0.60981789E+00
  0.78014186E-01  0.12061778E+00  0.60331135E-01
  0.88000768E+00  0.19803146E+00  0.45733295E+00
  0.50585447E+00  0.78218083E-01  0.97627405E+00
  0.57063264E+00  0.25507598E+00  0.19880117E+00
  0.11852017E+00  0.24341288E+00  0.48311198E+00
  0.24993945E+00  0.18227615E+00  0.19577126E+00
  0.39291702E+00  0.40254461E+00  0.55293501E+00
  0.28712335E+00  0.93095970E+00  0.99153569E+00
  0.89743128E+00  0.99295300E-01  0.79959768E+00
  0.79815967E+00  0.17828803E-01  0.30891529E+00
  0.53859429E+00  0.59387922E+00  0.60286527E+00
  0.87421988E+00  0.26310437E+00  0.18466422E+00
  0.15737341E+00  0.87685539E+00  0.17754768E+00
  0.96873747E+00  0.43935312E+00  0.36790401E+00
  0.10174639E+00  0.28903799E+00  0.93290234E+00
  0.61505999E+00  0.18565139E+00  0.43256569E+00
  0.65850555E+00  0.41244373E+00  0.49540041E+00
  0.40140521E+00  0.32484734E+00  0.45153516E-01
  0.13307511E-01  0.87843770E+00  0.81642144E+00
  0.49426748E+00  0.81238348E+00  0.88229852E+00
  0.95792401E+00  0.77898824E+00  0.49666816E+00
  0.96228281E+00  0.31147157E+00  0.66446936E+00
  0.76555313E+00  0.62279354E+00  0.36732421E+00
  0.62370465E+00  0.98715546E+00  0.55744975E+00
  0.53411394E+00  0.66030420E+00  0.43558946E+00
  0.99835362E+00  0.44345892E+00  0.53255379E-01
  0.98869910E+00  0.64747769E+00  0.83584120E+00
  0.71926468E+00  0.85230059E+00  0.12394080E+00
  0.33823023E+00  0.60255155E+00  0.31112252E+00
  0.42225644E+00  0.43470286E+00  0.79712667E+00
  0.97889697E-01  0.57404404E+00  0.57762088E+00
  0.62391741E+00  0.14526616E+00  0.77394352E+00
  0.53795493E+00  0.63573812E+00  0.14838152E+00
  0.75382228E+00  0.39903669E+00  0.89232756E+00
  0.26851478E+00  0.82807218E+00  0.55089715E+00
  0.47092702E+00  0.94317916E+00  0.27303872E+00
  0.23543371E+00  0.12706091E+00  0.75550190E+00
  0.24371450E+00  0.64823438E+00  0.97476457E+00
  0.18878003E-03  0.81102961E-03  0.11612605E-02
  0.95813454E-03 -0.23839626E-03  0.39632686E-03
  0.43955657E-03 -0.48644513E-03  0.30364922E-03
 -0.16074550E-03 -0.27454515E-03 -0.55800079E-03
  0.42782140E-03  0.37695152E-03  0.77511629E-03
 -0.54107005E-03  0.24917206E-03  0.15699255E-03
 -0.23373160E-03 -0.10233934E-03  0.39695951E-05
  0.19288739E-03  0.21718382E-03 -0.85079641E-03
  0.91278362E-04 -0.47234183E-03  0.57505270E-03
 -0.32319985E-03 -0.97191522E-04  0.49722109E-03
 -0.53580278E-04 -0.42118834E-03  0.24923791E-03
  0.11544810E-03 -0.51110219E-03  0.48603402E-03
 -0.36730753E-04  0.68984744E-03  0.55821727E-04
 -0.55825972E-03 -0.28370104E-04  0.86907497E-04
  0.28976126E-03  0.62915394E-03 -0.35775083E-03
 -0.12077215E-02 -0.65157261E-03 -0.11218438E-02
  0.44658859E-03  0.85171241E-04 -0.19976188E-03
 -0.72870323E-04  0.26468935E-03 -0.25060281E-03
 -0.86031407E-03 -0.44257385E-04  0.75055447E-03
 -0.16242402E-03  0.41229711E-03 -0.55636104E-03
  0.34795035E-05  0.38590670E-03 -0.48010245E-03
  0.12996161E-02  0.92536331E-03  0.69132536E-03
  0.14826854E-03  0.84773874E-03  0.33775707E-03
  0.57665955E-04 -0.10754891E-02 -0.22637226E-04
  0.24282997E-03  0.36029013E-03  0.17394032E-05
  0.30714608E-03 -0.28574246E-03  0.34939887E-03
  0.30366013E-03  0.35048613E-03  0.48638383E-03
  0.48799153E-03  0.86963408E-03 -0.84947787E-04
  0.94452572E-03 -0.22957021E-03  0.16593239E-03
 -0.85036362E-03 -0.24414705E-03 -0.63180365E-05
  0.35093631E-03 -0.15272020E-03 -0.28864415E-03
  0.44875616E-03  0.39969040E-03  0.17490054E-03
  0.90310391E-03 -0.72799110E-03 -0.94690157E-04
  0.66627137E-04 -0.71047102E-03  0.48728401E-03
 -0.63929572E-03  0.28692992E-03 -0.13220501E-03
  0.31268310E-03  0.27647275E-03 -0.22022499E-03
  0.40316381E-03  0.46009409E-04 -0.12920490E-02
  0.60454138E-03  0.47252881E-03  0.11231872E-02
  0.24159141E-03 -0.26281651E-03 -0.48470093E-03
 -0.66461419E-03  0.46125442E-04 -0.29626779E-03
 -0.11886998E-02  0.98876008E-03  0.82354975E-03
 -0.48312120E-03 -0.10952751E-02  0.52907949E-03
 -0.34813612E-04 -0.49459979E-03 -0.10286266E-03
  0.12850559E-02 -0.35601433E-03  0.13207731E-03
 -0.19883443E-03 -0.11085256E-03 -0.35355013E-03
  0.63705087E-05  0.10704475E-02 -0.75472922E-03
  0.19988680E-03  0.84229020E-03  0.31159916E-03
 -0.51882765E-03  0.71951235E-04 -0.12354437E-02
  0.76515497E-04  0.41518202E-03 -0.22964968E-03
 -0.21751610E-03 -0.12466640E-03  0.66797534E-03
  0.17793645E-03  0.77545015E-03  0.40958743E-03
  0.87395768E-03 -0.96582844E-04 -0.14366383E-03
 -0.88730799E-03  0.33584498E-03 -0.19477001E-03
 -0.46978324E-03 -0.73806179E-04 -0.76732228E-03
 -0.31744720E-03 -0.26189007E-03 -0.22459609E-04
  0.10028374E-03  0.64430588E-03  0.49550982E-03
 -0.43569031E-03  0.14997200E-03  0.11529738E-04
  0.12902578E-02  0.41066092E-03  0.11555755E-03
  0.14879914E-03 -0.46996161E-03 -0.26216404E-04
 -0.12225074E-03  0.59335097E-03 -0.36942810E-05
  0.14653753E-03 -0.42777290E-03 -0.33279441E-03
 -0.50619672E-03  0.78818803E-04  0.28727527E-03
 -0.40058201E-04  0.79433971E-03 -0.61261991E-03
  0.95098670E-03 -0.79421853E-03 -0.59131027E-03
 -0.42576802E-03  0.21862297E-03 -0.43467017E-03
 -0.52146487E-04  0.74694116E-04  0.15808634E-04
 -0.13542369E-03 -0.46826348E-03  0.43282919E-03
 -0.36176988E-03 -0.54690471E-03  0.30240448E-03
  0.54673728E-03  0.80884961E-03  0.60989672E-03
 -0.37653785E-03  0.28922160E-03  0.25943847E-03
  0.46709551E-03 -0.61859860E-03 -0.56970511E-03
 -0.20180500E-03  0.69651959E-03 -0.51887027E-03
 -0.28903792E-03  0.74988143E-03 -0.11985374E-02
  0.64509596E-03  0.50118288E-03 -0.20481841E-03
 -0.24122550E-03 -0.79741010E-03 -0.57467751E-03
 -0.27333778E-03 -0.34183742E-03  0.13010316E-02
  0.24233075E-03  0.43132216E-03  0.71179619E-03
 -0.25367884E-03  0.55151618E-03  0.91325665E-04
  0.35266776E-03 -0.80727640E-03  0.28209448E-03
  0.37254194E-03  0.51109115E-04 -0.24465107E-03
  0.36981080E-04 -0.73575743E-03 -0.31878274E-03
 -0.11373901E-02 -0.15255421E-03 -0.99360916E-03
 -0.10080497E-02  0.71125161E-03  0.10000355E-02
  0.10324195E-02 -0.12835571E-02 -0.45595611E-03
 -0.10173425E-03 -0.14155324E-03 -0.21668146E-03
  0.10532132E-03 -0.33326123E-03  0.18765932E-02
 -0.12995477E-03  0.14714580E-02 -0.71578796E-04
  0.46338335E-03 -0.20274538E-03  0.44482179E-03
  0.31540672E-03  0.58884495E-03  0.10585568E-03
  0.31128381E-03 -0.62230171E-04  0.28517611E-04
 -0.13193597E-02  0.18401483E-03  0.19260962E-02
  0.73258486E-03  0.39304664E-04  0.13817863E-02
 -0.69542939E-03  0.97882880E-03 -0.85370967E-04
 -0.22123057E-02  0.18345336E-04  0.93424610E-03
 -0.78744457E-03 -0.64251946E-03 -0.16722746E-02
  0.14919203E-02  0.32700501E-03  0.33593022E-03
 -0.83380591E-04  0.88985893E-03  0.62761853E-03
  0.14286694E-03  0.59114576E-03 -0.48062901E-04
  0.80984958E-03 -0.44924535E-04 -0.39875192E-05
  0.32910039E-03 -0.17359374E-02 -0.93978617E-03
  0.47006280E-03 -0.70693509E-03  0.13351166E-02
 -0.76175273E-03  0.11281937E-02 -0.38419673E-03
  0.33558465E-04  0.45158838E-04 -0.12566845E-02
  0.45698499E-03  0.20850714E-03 -0.51624821E-03
  0.14933267E-03 -0.77319577E-03 -0.14978005E-02
 -0.89545117E-04 -0.12218960E-02 -0.72016864E-03
 -0.87419925E-03 -0.45868625E-03  0.18755206E-02
 -0.26272339E-02  0.25052009E-03 -0.49260091E-03
  0.11115975E-02  0.13019447E-02  0.53158389E-03
  0.11955607E-02  0.87615797E-03 -0.97520062E-03
  0.52165971E-03  0.25059519E-03 -0.13309212E-04
  0.25720061E-03  0.69216862E-03 -0.60161927E-03
  0.17311026E-03  0.85272769E-03 -0.84028905E-03
  0.92252997E-03 -0.77740350E-03  0.15054215E-03
  0.67565955E-03  0.12985132E-02 -0.14324258E-02
 -0.34323036E-04  0.72888530E-03  0.11240770E-02
  0.11068320E-02 -0.15601143E-02  0.11532433E-02
 -0.68753639E-03  0.12495852E-02 -0.20610570E-02
 -0.12496774E-02  0.14448533E-02 -0.16300494E-02
 -0.73911921E-03 -0.89385260E-03 -0.10376464E-02
  0.17286150E-02 -0.81422935E-03 -0.13146356E-02
 -0.17915047E-03  0.18589892E-03  0.18668529E-02
 -0.35525010E-03 -0.45921411E-03  0.67362964E-04
  0.76951591E-04  0.37701911E-04  0.62209022E-03
  0.11567447E-02 -0.31312827E-03 -0.12212567E-02
  0.14500820E-04 -0.64319775E-04  0.73308671E-04
 -0.11492724E-03 -0.14298315E-03 -0.12319806E-03
  0.13765758E-03 -0.94247048E-04  0.24628441E-03
 -0.28163080E-03 -0.57002331E-04 -0.53506019E-04
 -0.48013052E-04 -0.19912538E-03 -0.12990961E-03
  0.00000000E+00  0.00000000E+00  0.00000000E+00
  0.00000000E+00  0.00000000E+00  0.00000000E+00
  0.00000000E+00  0.00000000E+00  0.00000000E+00
  0.00000000E+00  0.00000000E+00  0.00000000E+00
  0.00000000E+00  0.00000000E+00  0.00000000E+00
  0.00000000E+00  0.00000000E+00  0.00000000E+00
  0.00000000E+00  0.00000000E+00  0.00000000E+00
  0.00000000E+00  0.00000000E+00  0.00000000E+00
  0.00000000E+00  0.00000000E+00  0.00000000E+00
  0.00000000E+00  0.00000000E+00  0.00000000E+00
  0.00000000E+00  0.00000000E+00  0.00000000E+00
  0.00000000E+00  0.00000000E+00  0.00000000E+00
  0.00000000E+00  0.00000000E+00  0.00000000E+00
  0.00000000E+00  0.00000000E+00  0.00000000E+00
  0.00000000E+00  0.00000000E+00  0.00000000E+00
  0.00000000E+00  0.00000000E+00  0.00000000E+00
  0.00000000E+00  0.00000000E+00  0.00000000E+00
  0.00000000E+00  0.00000000E+00  0.00000000E+00
  0.00000000E+00  0.00000000E+00  0.00000000E+00
  0.00000000E+00  0.00000000E+00  0.00000000E+00
  0.00000000E+00  0.00000000E+00  0.00000000E+00
  0.00000000E+00  0.00000000E+00  0.00000000E+00
  0.00000000E+00  0.00000000E+00  0.00000000E+00
  0.00000000E+00  0.00000000E+00  0.00000000E+00
  0.00000000E+00  0.00000000E+00  0.00000000E+00
  0.00000000E+00  0.00000000E+00  0.00000000E+00
  0.00000000E+00  0.00000000E+00  0.00000000E+00
  0.00000000E+00  0.00000000E+00  0.00000000E+00
  0.00000000E+00  0.00000000E+00  0.00000000E+00
  0.00000000E+00  0.00000000E+00  0.00000000E+00
  0.00000000E+00  0.00000000E+00  0.00000000E+00
  0.00000000E+00  0.00000000E+00  0.00000000E+00
  0.00000000E+00  0.00000000E+00  0.00000000E+00
  0.00000000E+00  0.00000000E+00  0.00000000E+00
  0.00000000E+00  0.00000000E+00  0.00000000E+00
  0.00000000E+00  0.00000000E+00  0.00000000E+00
  0.00000000E+00  0.00000000E+00  0.00000000E+00
  0.00000000E+00  0.00000000E+00  0.00000000E+00
  0.00000000E+00  0.00000000E+00  0.00000000E+00
  0.00000000E+00  0.00000000E+00  0.00000000E+00
  0.00000000E+00  0.00000000E+00  0.00000000E+00
  0.00000000E+00  0.00000000E+00  0.00000000E+00
  0.00000000E+00  0.00000000E+00  0.00000000E+00
  0.00000000E+00  0.00000000E+00  0.00000000E+00
  0.00000000E+00  0.00000000E+00  0.00000000E+00
  0.00000000E+00  0.00000000E+00  0.00000000E+00
  0.00000000E+00  0.00000000E+00  0.00000000E+00
  0.00000000E+00  0.00000000E+00  0.00000000E+00
  0.00000000E+00  0.00000000E+00  0.00000000E+00
  0.00000000E+00  0.00000000E+00  0.00000000E+00
  0.00000000E+00  0.00000000E+00  0.00000000E+00