POSCAR file written by OVITO Basic 3.10.
   1.00000000000000     
    10.8338000000000001    0.0000000000000000    0.0000000000000000
     0.0000000000000000   10.8338000000000001    0.0000000000000000
     0.0000000000000000    0.0000000000000000   10.8338000000000001
   F    Be   Li
    60    15    30
Direct
  0.6537168626619350  0.5779146432456396  0.6139100095956410
  0.7564995650759835  0.1129212083489858  0.7950394770881166
  0.9227355497503990  0.9105936944667367  0.4514535935861930
  0.1879429082025433  0.5619521322171582  0.5916137098367763
  0.4434912245271828  0.3938027418411879  0.9850806668193959
  0.5487231248944916  0.6578881621857111  0.1644399906928324
  0.8742058993269635  0.7919683615354551  0.2596210292466043
  0.2621804334960999  0.9911434419938832  0.0023117242302275
  0.8694812822958500  0.6623758502826469  0.4658760250433889
  0.4687910947789472  0.7361139162507636  0.9656343823634354
  0.2243062842512171  0.3451969441465335  0.0326485832082366
  0.4427987979049819  0.5493028385016990  0.4938802497922331
  0.9161463567302240  0.7787411879434760  0.6482759566765222
  0.3906859976542952  0.2035884652595399  0.1675415892551242
  0.1173834435840911  0.3209693909246011  0.6443375548830454
  0.7041107472551305  0.7371390242120383  0.7636959966798801
  0.5565124676056411  0.5681537286156507  0.8116441458402683
  0.4908838871165239  0.1846322813426585  0.3780096404517057
  0.8167295460161484  0.6360807807321768  0.9741943574513979
  0.1926387078390421  0.0326059877752768  0.5811371726415248
  0.0273126438055718  0.3252497935610473  0.8398725914216414
  0.9637173317686342  0.5715783711174571  0.2856784344861708
  0.0996464263250926  0.5898883116881495  0.1111473141289367
  0.2576542468777214  0.8231194457492311  0.4642335518648662
  0.9594940355098278  0.1656234633618254  0.4706348115275510
  0.7242783821466584  0.3654103107323199  0.8981217247969202
  0.5219204593229736  0.8015639565851014  0.3969502928398712
  0.0491275780773895  0.1084850969385889  0.0278357289704816
  0.3931720747329515  0.4144983227856045  0.2976460230124361
  0.5646942831033726  0.2384936725656696  0.7663606264238413
  0.9841820829274599  0.9967985622210898  0.8014715681225413
  0.2007985177948916  0.6125348466586921  0.3294223882944464
  0.2437034264980872  0.8312553185628773  0.6985752479699456
  0.6902565681861196  0.3430727169295156  0.1530283413642279
  0.1318256486967229  0.9339791340415443  0.1914722885647458
  0.5108637125752764  0.0650312523205690  0.0022715275661355
  0.7254826080093133  0.1731126850543338  0.4890735991482562
  0.2390219365798322  0.2154839805719789  0.3376030185511237
  0.7674295465154369  0.0879659486662878  0.0246495022170047
  0.3851361331776406  0.8024302024144759  0.1704922443243537
  0.0638833659826775  0.8657773295357416  0.9926588070628130
  0.5942450805796582  0.9993868600222913  0.7298775886340779
  0.4730864575261517  0.7257049961721537  0.6640679678387776
  0.9361240613577146  0.4951211941895823  0.6973632989598513
  0.6185266796345653  0.9965927710326834  0.1732853693024891
  0.4033660474467272  0.3227170428825010  0.5392613472437300
  0.2955136350373784  0.1981666849130298  0.8141229167140962
  0.2828203977635951  0.5125590376793764  0.8681361821165130
  0.8628582584456189  0.3503258263647016  0.4083754285943706
  0.9072910270292928  0.3257576554630034  0.0660347213923735
  0.3953278039975593  0.9415199033898412  0.5864254211540564
  0.6678988819639368  0.8814572684167027  0.9621924844884298
  0.3460339541210827  0.0049412495027876  0.2727701685581913
  0.0272512607595182  0.6272414996719903  0.8637972286215744
  0.3432742514907403  0.5624720978233089  0.0999439710133803
  0.7213215044690054  0.8592981015004089  0.5360414856512785
  0.6088258521601082  0.3853883089125872  0.4340360205963563
  0.1038914820547380  0.4090137980612590  0.2503547885425061
  0.7471167186079752  0.6006482727774395  0.3193142819669169
  0.8869396208468741  0.2785339154313732  0.6399493898546017
  0.4494769595081320  0.4120135678167077  0.4379223755132121
  0.9921153658898387  0.3318820293734477  0.7021635998405059
  0.3145086963306431  0.4426546265711306  0.9785765605250792
  0.2678345496073753  0.8971253602385544  0.5834036462304565
  0.4216236465044204  0.6978877567139200  0.0908367854241007
  0.6524717718869893  0.0103516495566245  0.0321629743785044
  0.8398647514624163  0.7974061546426636  0.5444214771000353
  0.8644136432219111  0.6728677565956820  0.3179470535012344
  0.8449270432642154  0.2471220284094406  0.4941939949368107
  0.6298133699134852  0.1249237456644242  0.7665216116791195
  0.1061215416390860  0.5419428150496727  0.2391599452018592
  0.3673428817033805  0.1570293235643400  0.3034569451107162
  0.1183685590851845  0.9762345449306937  0.0607717274721301
  0.7803052275498885  0.3432727814995490  0.0327631929755111
  0.5823190285240848  0.6475885703004723  0.7075306513258187
  0.6453643909183112  0.7060772957437342  0.0223454853118536
  0.4765756733487848  0.4634675866345056  0.1788478743469847
  0.4351202665482249  0.1955131788977457  0.9995365611615887
  0.0364133325318687  0.7655424002435181  0.1147069910072534
  0.5602698516445982  0.6303159235315936  0.4222125982524316
  0.4002880102954139  0.9615910512754793  0.1113821410207680
  0.3780936470388351  0.7284172099137169  0.8094818021481152
  0.2154872114282232  0.3087435949287741  0.2015795779353723
  0.0263943049076576  0.8246964428196036  0.7956134704540856
  0.9753557023120336  0.5616669629430042  0.0154143682819519
  0.5860061920251688  0.8512250554482019  0.2424868688405809
  0.5773618857012555  0.4100884584102144  0.8292684701355055
  0.1372362616323402  0.1870084077436529  0.4555378047957038
  0.3465952026105578  0.8505129006259413  0.3247714041082921
  0.9144409239729654  0.3909770717620392  0.2615544340557344
  0.9802564522137726  0.9971429736927542  0.6252878769118002
  0.6919795700742459  0.8915565639483299  0.8137858001445519
  0.1068578877317876  0.5260141436054802  0.7840493611670245
  0.9030406413626918  0.1191069907215389  0.9084344067370355
  0.2894709229813751  0.3204443680448569  0.6778101623767759
  0.2939339605326722  0.6486857773147517  0.4828796165445697
  0.7396950469964622  0.5216142018385762  0.4766104639796477
  0.6560025710629648  0.2225198806580412  0.3205366379140024
  0.0219824119175406  0.9406449718982457  0.3490133916230029
  0.5737323617017943  0.2470987799214113  0.5223832693322066
  0.1457061159021366  0.2252855339825300  0.9351695422584978
  0.3393717772527753  0.0328268509077131  0.7932137418760572
  0.8160063847609551  0.6218552251871221  0.8183598380969722
  0.0443337858531868  0.5642951913389691  0.5664055623087968
  0.5408684661496307  0.9098219406562148  0.5194963157862670
 
 -0.80408534E-03  0.10447662E-01 -0.74719796E-03
 -0.86310318E-03 -0.87698876E-03  0.44516381E-02
  0.49471272E-02  0.65009019E-02  0.91246941E-03
 -0.18602560E-02 -0.47198728E-02 -0.74180710E-02
  0.10566850E-02  0.58532182E-02  0.10550124E-01
  0.50943007E-02  0.93212625E-02 -0.14929908E-02
 -0.15893637E-01  0.14785537E-02 -0.73312884E-03
 -0.41609242E-02  0.14006328E-01  0.13238833E-02
 -0.72382415E-03 -0.47547102E-02  0.95403891E-03
 -0.50760257E-02 -0.22451726E-03 -0.21309036E-04
 -0.41992316E-03 -0.36633604E-02 -0.43834552E-02
  0.63045041E-02 -0.10168024E-01 -0.90625313E-02
  0.59439302E-02 -0.13325706E-01 -0.84541546E-02
 -0.21346935E-02  0.26466439E-03 -0.40552676E-03
 -0.77291470E-02  0.18293474E-02 -0.17811755E-02
  0.35754980E-02  0.13575810E-03 -0.16435586E-02
 -0.28578415E-02  0.57671796E-02 -0.36251084E-02
  0.30116424E-02 -0.52164245E-02 -0.15704125E-02
 -0.10263715E-01 -0.52081342E-02 -0.96781473E-02
  0.75023693E-02  0.53982213E-02 -0.22421155E-02
 -0.17035234E-01  0.68180370E-03 -0.10318155E-01
 -0.11275225E-01  0.13932374E-01 -0.94234040E-02
 -0.31442346E-02  0.43101436E-02 -0.38165102E-02
  0.38757495E-02  0.17469188E-02 -0.61243762E-02
  0.24938271E-02 -0.10678332E-01  0.38789894E-02
 -0.81323532E-02 -0.53300528E-02 -0.19158105E-02
  0.81835469E-02  0.36670546E-02 -0.16591424E-02
 -0.36202421E-02  0.14514337E-01  0.96820612E-02
  0.65192827E-02 -0.13235237E-03 -0.75197605E-02
 -0.10697273E-01  0.20409170E-02  0.86264774E-03
  0.23995197E-02 -0.78849887E-02  0.47579362E-02
 -0.13084781E-02  0.92825688E-02  0.13059528E-01
 -0.25484410E-02 -0.51948763E-02  0.65079270E-02
 -0.94607703E-02 -0.45686651E-02 -0.56899951E-03
  0.70858657E-02 -0.64492597E-02  0.95011242E-02
  0.97649384E-03 -0.11791091E-01 -0.48620082E-02
 -0.55103356E-02 -0.20627250E-02 -0.87561261E-02
  0.92398068E-02  0.72659544E-02  0.78172512E-02
 -0.17175381E-02 -0.17832438E-01  0.34495256E-02
 -0.40837395E-02  0.91264341E-02  0.29225174E-02
 -0.12115037E-01  0.64835210E-02 -0.86083576E-02
  0.15604588E-01 -0.93890339E-02  0.12998255E-02
  0.78477833E-02 -0.10480916E-01  0.64749741E-02
  0.41533287E-02  0.15443559E-02  0.53308920E-02
 -0.12680871E-01 -0.59738523E-02  0.74955950E-02
  0.10440880E-01  0.56562880E-04 -0.62693469E-02
 -0.14274103E-02 -0.51837132E-03 -0.23016440E-02
  0.79314092E-02  0.24927950E-03 -0.90025216E-02
  0.48412644E-02  0.14366942E-02 -0.32490916E-02
 -0.21822936E-02 -0.17769130E-02  0.21001521E-02
  0.14743451E-02  0.63983252E-02  0.10073157E-01
  0.14275183E-01  0.12356117E-02 -0.39909286E-02
  0.12639091E-01 -0.11972611E-01  0.55144501E-02
  0.13343092E-01  0.30258680E-02  0.24281677E-02
 -0.69656900E-02  0.16347560E-02 -0.47644086E-03
  0.45424390E-02 -0.88495790E-02  0.26638848E-02
  0.18163746E-02  0.47263909E-02 -0.24853818E-02
 -0.11494662E-01  0.59716290E-02  0.87432006E-02
  0.52453021E-03  0.24878990E-02 -0.92306856E-02
  0.51024562E-02  0.69131219E-02  0.11198914E-02
 -0.87232474E-02 -0.78673817E-02  0.88673712E-02
 -0.22063176E-02  0.99454609E-02  0.25400441E-02
 -0.17672186E-01  0.10384527E-02 -0.12784759E-02
  0.17961752E-02  0.84147082E-02 -0.97330079E-02
 -0.85225601E-02  0.71879958E-02  0.36014141E-03
  0.88288173E-02  0.12731836E-01 -0.97113474E-02
 -0.14284621E-01  0.63441697E-02  0.26216245E-02
 -0.95524954E-03  0.12948796E-01 -0.13099824E-02
 -0.80600230E-02  0.69183901E-03 -0.48666089E-02
  0.54830851E-02 -0.46380829E-02  0.16706160E-01
 -0.77955060E-02  0.54465544E-02  0.13758499E-01
 -0.28158337E-02  0.54303880E-02 -0.86442014E-02
 -0.14580051E-01 -0.39509161E-02  0.35473214E-02
 -0.10974159E-01  0.13257953E-02  0.15586716E-01
 -0.14051062E-01  0.14118421E-01 -0.58168809E-02
  0.45106144E-02 -0.14800025E-01 -0.72444288E-02
  0.41243837E-02  0.92731147E-03 -0.19450125E-02
  0.15112381E-01 -0.13515183E-01  0.12011143E-01
  0.94723579E-02 -0.80416908E-02  0.14288193E-02
  0.92008567E-02  0.86716423E-03  0.75018107E-03
  0.17495639E-02  0.12415015E-01  0.65723916E-02
  0.62939841E-03  0.79525656E-02  0.58292113E-02
  0.95941661E-02  0.35329783E-02  0.81461296E-02
 -0.21447306E-01  0.55873294E-03  0.27856895E-02
  0.94951223E-02 -0.86972659E-02 -0.84111608E-02
 -0.19468787E-02 -0.21407569E-01 -0.11925845E-01
  0.23493694E-01 -0.46378340E-02 -0.74328188E-02
 -0.14331960E-01 -0.53088592E-02  0.24144345E-02
  0.52515131E-02  0.43647885E-02  0.20154433E-01
 -0.30747240E-02  0.22787607E-02  0.46610413E-02
  0.13662050E-01 -0.46375879E-02  0.43717616E-02
  0.19447908E-01 -0.38135944E-02 -0.79986851E-02
  0.13758593E-01 -0.14192698E-01 -0.99269819E-02
  0.93946288E-02 -0.90797246E-02 -0.15464430E-01
  0.14861672E-02  0.89159916E-02  0.91454690E-02
  0.10456351E-01 -0.11076523E-01  0.13835148E-02
  0.52302939E-02 -0.22372282E-01  0.11225966E-01
 -0.12404928E-02  0.22810488E-02 -0.30444636E-02
 -0.16063937E-02 -0.11425570E-01 -0.14304729E-01
 -0.13219412E-01 -0.96814547E-02  0.55527857E-02
  0.46935146E-02  0.18751139E-01  0.12489262E-01
  0.31190782E-02  0.10878326E-01 -0.22862007E-02
  0.34033502E-02  0.55227111E-03 -0.59892204E-02
 -0.17786546E-01  0.43079871E-03  0.84792620E-02
  0.65538005E-02 -0.28257013E-02  0.35785136E-02
 
           1
   1.00000000000000     
  0.55135402E+00 -0.18441367E-02 -0.17817249E-02  0.55316695E+00
  0.65364264E+00  0.57887900E+00  0.61384104E+00
  0.75641990E+00  0.11284026E+00  0.79545038E+00
  0.92319219E+00  0.91119375E+00  0.45153782E+00
  0.18777120E+00  0.56151647E+00  0.59092899E+00
  0.44358876E+00  0.39434302E+00  0.98605448E+00
  0.54919335E+00  0.65874855E+00  0.16430218E+00
  0.87273886E+00  0.79210484E+00  0.25955336E+00
  0.26179636E+00  0.99243628E+00  0.24339236E-02
  0.86941447E+00  0.66193697E+00  0.46596409E+00
  0.46832256E+00  0.73609319E+00  0.96563242E+00
  0.22426752E+00  0.34485880E+00  0.32243974E-01
  0.44338073E+00  0.54836429E+00  0.49304374E+00
  0.91669500E+00  0.77751118E+00  0.64749561E+00
  0.39048896E+00  0.20361289E+00  0.16750416E+00
  0.11667001E+00  0.32113825E+00  0.64417315E+00
  0.70444078E+00  0.73715156E+00  0.76354429E+00
  0.55624868E+00  0.56868606E+00  0.81130953E+00
  0.49116187E+00  0.18415079E+00  0.37786469E+00
  0.81578217E+00  0.63560005E+00  0.97330103E+00
  0.19333120E+00  0.33104264E-01  0.58093022E+00
  0.25740228E-01  0.32531273E+00  0.83892019E+00
  0.96267659E+00  0.57286438E+00  0.28480862E+00
  0.99356202E-01  0.59028615E+00  0.11079504E+00
  0.25801199E+00  0.82328069E+00  0.46366825E+00
  0.95972423E+00  0.16463781E+00  0.47099286E+00
  0.72352774E+00  0.36491833E+00  0.89794489E+00
  0.52267583E+00  0.80190244E+00  0.39679715E+00
  0.48793416E-01  0.10982482E+00  0.28729419E-01
  0.39377383E+00  0.41448611E+00  0.29695192E+00
  0.56370689E+00  0.23868206E+00  0.76644025E+00
  0.98440357E+00  0.99607075E+00  0.80191074E+00
  0.20067774E+00  0.61339166E+00  0.33062783E+00
  0.24346820E+00  0.83077581E+00  0.69917595E+00
  0.68938330E+00  0.34265101E+00  0.15297582E+00
  0.13247970E+00  0.93338384E+00  0.19234928E+00
  0.51095385E+00  0.63942891E-01  0.18227461E-02
  0.72497398E+00  0.17292229E+00  0.48826538E+00
  0.23987481E+00  0.21615466E+00  0.33832458E+00
  0.76727101E+00  0.86319948E-01  0.24967906E-01
  0.38475919E+00  0.80327261E+00  0.17076200E+00
  0.62765103E-01  0.86637578E+00  0.99186422E+00
  0.59568544E+00  0.99852022E+00  0.72999757E+00
  0.47381084E+00  0.72473757E+00  0.66466563E+00
  0.93650743E+00  0.49526374E+00  0.69785536E+00
  0.61735619E+00  0.99604136E+00  0.17397724E+00
  0.40432978E+00  0.32272226E+00  0.53868266E+00
  0.29538188E+00  0.19811884E+00  0.81391047E+00
  0.28355250E+00  0.51258205E+00  0.86730522E+00
  0.86330513E+00  0.35045844E+00  0.40807553E+00
  0.90708959E+00  0.32559364E+00  0.66228573E-01
  0.39546389E+00  0.94211049E+00  0.58735521E+00
  0.66921653E+00  0.88157132E+00  0.96182411E+00
  0.34720059E+00  0.38361330E-02  0.27327917E+00
  0.28482878E-01  0.62752080E+00  0.86402136E+00
  0.34263129E+00  0.56262299E+00  0.99899994E-01
  0.72174079E+00  0.85848125E+00  0.53628737E+00
  0.60899351E+00  0.38582457E+00  0.43380661E+00
  0.10283048E+00  0.40956500E+00  0.25116182E+00
  0.74716513E+00  0.60087792E+00  0.31846226E+00
  0.88741060E+00  0.27917202E+00  0.64005276E+00
  0.44867177E+00  0.41128738E+00  0.43874087E+00
  0.99191171E+00  0.33280003E+00  0.70239806E+00
  0.31287749E+00  0.44275048E+00  0.97845855E+00
  0.26800034E+00  0.89790207E+00  0.58250525E+00
  0.42083698E+00  0.69855124E+00  0.90870028E-01
  0.65328670E+00  0.11526845E-01  0.31266581E-01
  0.83854623E+00  0.79799175E+00  0.54466346E+00
  0.86432547E+00  0.67406298E+00  0.31782614E+00
  0.84418307E+00  0.24718589E+00  0.49374479E+00
  0.63031948E+00  0.12449563E+00  0.76806365E+00
  0.10540199E+00  0.54244555E+00  0.24042991E+00
  0.36708297E+00  0.15753057E+00  0.30265905E+00
  0.11702277E+00  0.97586986E+00  0.61099158E-01
  0.77929227E+00  0.34339516E+00  0.34201905E-01
  0.58102206E+00  0.64889175E+00  0.70699373E+00
  0.64578074E+00  0.70471120E+00  0.21676798E-01
  0.47695637E+00  0.46355318E+00  0.17866834E+00
  0.43651520E+00  0.19426568E+00  0.64523433E-03
  0.37287666E-01  0.76480012E+00  0.11483888E+00
  0.56111912E+00  0.63039597E+00  0.42228184E+00
  0.40044950E+00  0.96273700E+00  0.11198880E+00
  0.37815174E+00  0.72915126E+00  0.81001986E+00
  0.21637279E+00  0.30906970E+00  0.20233150E+00
  0.24414639E-01  0.82474802E+00  0.79587060E+00
  0.97623214E+00  0.56086417E+00  0.14637987E-01
  0.58582649E+00  0.84924906E+00  0.24138607E+00
  0.57953044E+00  0.40966037E+00  0.82858239E+00
  0.13591337E+00  0.18651838E+00  0.45576067E+00
  0.34707994E+00  0.85091579E+00  0.32663173E+00
  0.91415712E+00  0.39118741E+00  0.26198467E+00
  0.98151751E+00  0.99671491E+00  0.62569141E+00
  0.69377468E+00  0.89120456E+00  0.81304749E+00
  0.10812786E+00  0.52470410E+00  0.78313306E+00
  0.90390780E+00  0.11826890E+00  0.90700698E+00
  0.28960810E+00  0.32126735E+00  0.67865432E+00
  0.29489912E+00  0.64766337E+00  0.48300732E+00
  0.74017782E+00  0.51954916E+00  0.47764666E+00
  0.65588807E+00  0.22273043E+00  0.32025562E+00
  0.21834136E-01  0.93959035E+00  0.34769301E+00
  0.57251216E+00  0.24620515E+00  0.52289581E+00
  0.14613934E+00  0.22701633E+00  0.93632235E+00
  0.33965968E+00  0.33830961E-01  0.79300272E+00
  0.81632053E+00  0.62190620E+00  0.81780701E+00
  0.42692022E-01  0.56433496E+00  0.56718823E+00
  0.54147341E+00  0.90956112E+00  0.51982663E+00
 -0.90822949E-04  0.98186383E-03 -0.25624035E-04
 -0.12453771E-03 -0.90942347E-04  0.40167185E-03
  0.46999298E-03  0.61527676E-03  0.27896851E-04
 -0.20612569E-03 -0.43977345E-03 -0.70007491E-03
  0.70227539E-04  0.56103453E-03  0.97679626E-03
  0.46405906E-03  0.86386852E-03 -0.13055705E-03
 -0.14809358E-02  0.12413598E-03 -0.38335746E-04
 -0.37882601E-03  0.12901390E-02  0.12177698E-03
 -0.82784262E-04 -0.46453217E-03  0.57348687E-04
 -0.45329416E-03 -0.24476401E-04  0.97984256E-05
 -0.37439904E-04 -0.34412125E-03 -0.40224660E-03
  0.59323933E-03 -0.91827559E-03 -0.81493263E-03
  0.50866726E-03 -0.12354893E-02 -0.83324993E-03
 -0.19274741E-03  0.20633362E-04 -0.39320765E-04
 -0.73080868E-03  0.17145562E-03 -0.13525198E-03
  0.34754959E-03  0.20498493E-04 -0.15020055E-03
 -0.24833673E-03  0.55387613E-03 -0.36681277E-03
  0.28221513E-03 -0.46433502E-03 -0.13819490E-03
 -0.93724558E-03 -0.47505505E-03 -0.93114318E-03
  0.71285903E-03  0.50816881E-03 -0.19623174E-03
 -0.15645341E-02  0.72421254E-04 -0.96155141E-03
 -0.10447058E-02  0.12888500E-02 -0.86229844E-03
 -0.28945648E-03  0.37334156E-03 -0.33703487E-03
  0.37392109E-03  0.17599004E-03 -0.55263339E-03
  0.20695267E-03 -0.96328008E-03  0.37132254E-03
 -0.77159625E-03 -0.49115601E-03 -0.22533268E-03
  0.75991704E-03  0.34410588E-03 -0.13088742E-03
 -0.34928185E-03  0.13561205E-02  0.88730691E-03
  0.59216561E-03 -0.53513601E-05 -0.74704299E-03
 -0.96034566E-03  0.16313966E-03  0.92785744E-04
  0.22396976E-03 -0.72388616E-03  0.46211704E-03
 -0.10243577E-03  0.86444285E-03  0.12202790E-02
 -0.21616606E-03 -0.45937925E-03  0.55320512E-03
 -0.88838171E-03 -0.42060952E-03 -0.34282634E-04
  0.67665459E-03 -0.58972610E-03  0.84290497E-03
  0.60242895E-04 -0.10592472E-02 -0.42127480E-03
 -0.49677544E-03 -0.19741196E-03 -0.80212004E-03
  0.84184464E-03  0.68291987E-03  0.71546907E-03
 -0.15702533E-03 -0.16540830E-02  0.31958100E-03
 -0.36501770E-03  0.83104108E-03  0.27038338E-03
 -0.11083752E-02  0.60882096E-03 -0.78175010E-03
  0.14787960E-02 -0.85878425E-03  0.12941896E-03
  0.71839507E-03 -0.96466008E-03  0.58433787E-03
  0.36429522E-03  0.15859108E-03  0.51051029E-03
 -0.11742694E-02 -0.53237235E-03  0.67941903E-03
  0.96445267E-03  0.43635474E-06 -0.58445622E-03
 -0.13649653E-03 -0.46526949E-04 -0.21587748E-03
  0.74795138E-03  0.14939721E-04 -0.80582857E-03
  0.46304057E-03  0.99869990E-04 -0.28938276E-03
 -0.21483324E-03 -0.17966633E-03  0.18184293E-03
  0.92934025E-04  0.55930184E-03  0.92422441E-03
  0.13247645E-02  0.10372279E-03 -0.41629193E-03
  0.11506838E-02 -0.11415506E-02  0.48948891E-03
  0.12368010E-02  0.24839228E-03  0.20622432E-03
 -0.65380737E-03  0.13171635E-03 -0.30069997E-04
  0.44612305E-03 -0.81610922E-03  0.24342937E-03
  0.18595508E-03  0.42198380E-03 -0.22287290E-03
 -0.10448149E-02  0.58865150E-03  0.79813293E-03
  0.10238391E-03  0.24869707E-03 -0.83285074E-03
  0.51484373E-03  0.65415648E-03  0.12214267E-03
 -0.79312613E-03 -0.75840211E-03  0.83015369E-03
 -0.22681895E-03  0.82865467E-03  0.16935119E-03
 -0.16296159E-02  0.70594595E-04 -0.16859687E-03
  0.19484764E-03  0.70276828E-03 -0.86050295E-03
 -0.79760686E-03  0.76930745E-03  0.11897628E-04
  0.82810236E-03  0.11724619E-02 -0.93564245E-03
 -0.13261904E-02  0.55953931E-03  0.35581275E-03
 -0.78647066E-04  0.12367763E-02 -0.16767453E-03
 -0.82168799E-03  0.13255377E-03 -0.52246100E-03
  0.47576019E-03 -0.38812578E-03  0.15462404E-02
 -0.78277455E-03  0.40672626E-03  0.11810554E-02
 -0.28543424E-03  0.55152053E-03 -0.73808271E-03
 -0.13895314E-02 -0.42536234E-03  0.40824100E-03
 -0.89006538E-03  0.12806862E-03  0.14627085E-02
 -0.13424560E-02  0.12176382E-02 -0.51473667E-03
  0.37304445E-03 -0.13564562E-02 -0.62598609E-03
  0.34836161E-03  0.63457118E-04 -0.10133656E-03
  0.14566796E-02 -0.13479078E-02  0.10974334E-02
  0.87040881E-03 -0.74062381E-03  0.11338742E-03
  0.83066110E-03  0.97217510E-05  0.80200027E-04
  0.19629788E-03  0.10951105E-02  0.62519187E-03
  0.70168834E-04  0.74733911E-03  0.56215430E-03
  0.83685939E-03  0.34033009E-03  0.78570224E-03
 -0.19824071E-02  0.53290271E-04  0.22231290E-03
  0.91858251E-03 -0.79971443E-03 -0.68686660E-03
 -0.18831490E-03 -0.19488134E-02 -0.11401937E-02
  0.21708640E-02 -0.39349080E-03 -0.71189888E-03
 -0.12834583E-02 -0.47119556E-03  0.14112482E-03
  0.49466732E-03  0.41085060E-03  0.18268689E-02
 -0.30347594E-03  0.20718216E-03  0.46479830E-03
  0.12510668E-02 -0.44815488E-03  0.40168678E-03
  0.17673687E-02 -0.35057641E-03 -0.63937385E-03
  0.12243080E-02 -0.12765316E-02 -0.88635078E-03
  0.86506209E-03 -0.80195551E-03 -0.14239673E-02
  0.14954059E-03  0.84105875E-03  0.83467036E-03
  0.10006383E-02 -0.99673448E-03  0.11669734E-03
  0.45111336E-03 -0.20410034E-02  0.10201656E-02
 -0.10054885E-03  0.20151765E-03 -0.24634616E-03
 -0.21739230E-03 -0.10663700E-02 -0.12211046E-02
 -0.11812252E-02 -0.87549104E-03  0.48162427E-03
  0.44024038E-03  0.17351212E-02  0.11754734E-02
  0.31704682E-03  0.98797005E-03 -0.20585077E-03
  0.27764263E-03  0.66328981E-04 -0.49919853E-03
 -0.15022567E-02  0.30465477E-04  0.80289690E-03
  0.56308985E-03 -0.23665176E-03  0.29190220E-03
  0.00000000E+00  0.00000000E+00  0.00000000E+00
  0.00000000E+00  0.00000000E+00  0.00000000E+00
  0.00000000E+00  0.00000000E+00  0.00000000E+00
  0.00000000E+00  0.00000000E+00  0.00000000E+00
  0.00000000E+00  0.00000000E+00  0.00000000E+00
  0.00000000E+00  0.00000000E+00  0.00000000E+00
  0.00000000E+00  0.00000000E+00  0.00000000E+00
  0.00000000E+00  0.00000000E+00  0.00000000E+00
  0.00000000E+00  0.00000000E+00  0.00000000E+00
  0.00000000E+00  0.00000000E+00  0.00000000E+00
  0.00000000E+00  0.00000000E+00  0.00000000E+00
  0.00000000E+00  0.00000000E+00  0.00000000E+00
  0.00000000E+00  0.00000000E+00  0.00000000E+00
  0.00000000E+00  0.00000000E+00  0.00000000E+00
  0.00000000E+00  0.00000000E+00  0.00000000E+00
  0.00000000E+00  0.00000000E+00  0.00000000E+00
  0.00000000E+00  0.00000000E+00  0.00000000E+00
  0.00000000E+00  0.00000000E+00  0.00000000E+00
  0.00000000E+00  0.00000000E+00  0.00000000E+00
  0.00000000E+00  0.00000000E+00  0.00000000E+00
  0.00000000E+00  0.00000000E+00  0.00000000E+00
  0.00000000E+00  0.00000000E+00  0.00000000E+00
  0.00000000E+00  0.00000000E+00  0.00000000E+00
  0.00000000E+00  0.00000000E+00  0.00000000E+00
  0.00000000E+00  0.00000000E+00  0.00000000E+00
  0.00000000E+00  0.00000000E+00  0.00000000E+00
  0.00000000E+00  0.00000000E+00  0.00000000E+00
  0.00000000E+00  0.00000000E+00  0.00000000E+00
  0.00000000E+00  0.00000000E+00  0.00000000E+00
  0.00000000E+00  0.00000000E+00  0.00000000E+00
  0.00000000E+00  0.00000000E+00  0.00000000E+00
  0.00000000E+00  0.00000000E+00  0.00000000E+00
  0.00000000E+00  0.00000000E+00  0.00000000E+00
  0.00000000E+00  0.00000000E+00  0.00000000E+00
  0.00000000E+00  0.00000000E+00  0.00000000E+00
  0.00000000E+00  0.00000000E+00  0.00000000E+00
  0.00000000E+00  0.00000000E+00  0.00000000E+00
  0.00000000E+00  0.00000000E+00  0.00000000E+00
  0.00000000E+00  0.00000000E+00  0.00000000E+00
  0.00000000E+00  0.00000000E+00  0.00000000E+00
  0.00000000E+00  0.00000000E+00  0.00000000E+00
  0.00000000E+00  0.00000000E+00  0.00000000E+00
  0.00000000E+00  0.00000000E+00  0.00000000E+00
  0.00000000E+00  0.00000000E+00  0.00000000E+00
  0.00000000E+00  0.00000000E+00  0.00000000E+00
  0.00000000E+00  0.00000000E+00  0.00000000E+00
  0.00000000E+00  0.00000000E+00  0.00000000E+00
  0.00000000E+00  0.00000000E+00  0.00000000E+00
  0.00000000E+00  0.00000000E+00  0.00000000E+00
  0.00000000E+00  0.00000000E+00  0.00000000E+00
  0.00000000E+00  0.00000000E+00  0.00000000E+00
  0.00000000E+00  0.00000000E+00  0.00000000E+00
  0.00000000E+00  0.00000000E+00  0.00000000E+00
  0.00000000E+00  0.00000000E+00  0.00000000E+00
  0.00000000E+00  0.00000000E+00  0.00000000E+00
  0.00000000E+00  0.00000000E+00  0.00000000E+00
  0.00000000E+00  0.00000000E+00  0.00000000E+00
  0.00000000E+00  0.00000000E+00  0.00000000E+00
  0.00000000E+00  0.00000000E+00  0.00000000E+00
  0.00000000E+00  0.00000000E+00  0.00000000E+00
  0.00000000E+00  0.00000000E+00  0.00000000E+00
  0.00000000E+00  0.00000000E+00  0.00000000E+00
  0.00000000E+00  0.00000000E+00  0.00000000E+00
  0.00000000E+00  0.00000000E+00  0.00000000E+00
  0.00000000E+00  0.00000000E+00  0.00000000E+00
  0.00000000E+00  0.00000000E+00  0.00000000E+00
  0.00000000E+00  0.00000000E+00  0.00000000E+00
  0.00000000E+00  0.00000000E+00  0.00000000E+00
  0.00000000E+00  0.00000000E+00  0.00000000E+00
  0.00000000E+00  0.00000000E+00  0.00000000E+00
  0.00000000E+00  0.00000000E+00  0.00000000E+00
  0.00000000E+00  0.00000000E+00  0.00000000E+00
  0.00000000E+00  0.00000000E+00  0.00000000E+00
  0.00000000E+00  0.00000000E+00  0.00000000E+00
  0.00000000E+00  0.00000000E+00  0.00000000E+00
  0.00000000E+00  0.00000000E+00  0.00000000E+00
  0.00000000E+00  0.00000000E+00  0.00000000E+00
  0.00000000E+00  0.00000000E+00  0.00000000E+00
  0.00000000E+00  0.00000000E+00  0.00000000E+00
  0.00000000E+00  0.00000000E+00  0.00000000E+00
  0.00000000E+00  0.00000000E+00  0.00000000E+00
  0.00000000E+00  0.00000000E+00  0.00000000E+00
  0.00000000E+00  0.00000000E+00  0.00000000E+00
  0.00000000E+00  0.00000000E+00  0.00000000E+00
  0.00000000E+00  0.00000000E+00  0.00000000E+00
  0.00000000E+00  0.00000000E+00  0.00000000E+00
  0.00000000E+00  0.00000000E+00  0.00000000E+00
  0.00000000E+00  0.00000000E+00  0.00000000E+00
  0.00000000E+00  0.00000000E+00  0.00000000E+00
  0.00000000E+00  0.00000000E+00  0.00000000E+00
  0.00000000E+00  0.00000000E+00  0.00000000E+00
  0.00000000E+00  0.00000000E+00  0.00000000E+00
  0.00000000E+00  0.00000000E+00  0.00000000E+00
  0.00000000E+00  0.00000000E+00  0.00000000E+00
  0.00000000E+00  0.00000000E+00  0.00000000E+00
  0.00000000E+00  0.00000000E+00  0.00000000E+00
  0.00000000E+00  0.00000000E+00  0.00000000E+00
  0.00000000E+00  0.00000000E+00  0.00000000E+00
  0.00000000E+00  0.00000000E+00  0.00000000E+00
  0.00000000E+00  0.00000000E+00  0.00000000E+00
  0.00000000E+00  0.00000000E+00  0.00000000E+00
  0.00000000E+00  0.00000000E+00  0.00000000E+00
  0.00000000E+00  0.00000000E+00  0.00000000E+00
  0.00000000E+00  0.00000000E+00  0.00000000E+00
  0.00000000E+00  0.00000000E+00  0.00000000E+00
